Fe16
1.0
   3.9673507661004304    0.0000000000000000    0.0000000000000002
   1.9836753830502141    3.4358265491666269    0.0000000000000002
   0.0000000000000000    0.0000000000000000   29.1539550227579412
Fe
16
direct
  -1.9166666666666679   -1.9166666666666681    0.3194444444444445 Fe
  -1.2500000000000009   -1.2500000000000011    0.2916666666666666 Fe
  -2.2500000000000013   -2.2500000000000013    0.3750000000000000 Fe
  -1.5833333333333344   -1.5833333333333346    0.3472222222222222 Fe
  -2.5833333333333348   -2.5833333333333353    0.4305555555555556 Fe
  -1.9166666666666679   -1.9166666666666681    0.4027777777777778 Fe
  -2.9166666666666683   -2.9166666666666687    0.4861111111111111 Fe
  -2.2500000000000018   -2.2500000000000022    0.4583333333333334 Fe
  -3.2500000000000022   -3.2500000000000027    0.5416666666666667 Fe
  -2.5833333333333348   -2.5833333333333353    0.5138888888888888 Fe
  -3.5833333333333357   -3.5833333333333361    0.5972222222222223 Fe
  -2.9166666666666683   -2.9166666666666687    0.5694444444444444 Fe
  -3.9166666666666683   -3.9166666666666687    0.6527777777777777 Fe
  -3.2500000000000018   -3.2500000000000022    0.6250000000000000 Fe
  -4.2500000000000027   -4.2500000000000027    0.7083333333333334 Fe
  -3.5833333333333357   -3.5833333333333361    0.6805555555555556 Fe
