H10 C8                                  
   1.00000000000000     
    25.0000000000000000    0.0000000000000000    0.0000000000000000
     0.0000000000000000   25.0000000000000000    0.0000000000000000
     0.0000000000000000    0.0000000000000000   25.0000000000000000
   H    C 
    10     8
Direct
  0.7463498609961547  0.6433672659248089  0.6433247610072641
  0.7439972233088952  0.6205320314275795  0.5762938717475095
  0.7459433877023756  0.5736301808005138  0.6293617079381022
  0.6620738377384612  0.6966853116310929  0.6362851716487370
  0.5632372234794758  0.6968191655504938  0.6382454247629354
  0.4788306711730783  0.6209250021511394  0.5815193546964181
  0.4787993992083273  0.5740348858340170  0.6346268299211530
  0.4791795172176307  0.6437686617157681  0.6485788248804454
  0.5623409368312053  0.5281874796377579  0.6044645465849712
  0.6611707846777364  0.5280496469175020  0.6025285338720110
  0.7293990879845467  0.6124457159063397  0.6170969623282048
  0.6691585283990023  0.6123942281120023  0.6190235896243763
  0.6403627762368984  0.6594777038634447  0.6290132557128061
  0.5845432218812476  0.6595464687074113  0.6301179733183488
  0.5552516488466139  0.6125489395985042  0.6213088968163945
  0.4949809619800618  0.6128043386547120  0.6216980891168973
  0.5840472528555338  0.5655004451583849  0.6112805460283113
  0.6398616690827410  0.5654257639285447  0.6095779088351193
 
  0.00000000E+00  0.00000000E+00  0.00000000E+00
  0.00000000E+00  0.00000000E+00  0.00000000E+00
  0.00000000E+00  0.00000000E+00  0.00000000E+00
  0.00000000E+00  0.00000000E+00  0.00000000E+00
  0.00000000E+00  0.00000000E+00  0.00000000E+00
  0.00000000E+00  0.00000000E+00  0.00000000E+00
  0.00000000E+00  0.00000000E+00  0.00000000E+00
  0.00000000E+00  0.00000000E+00  0.00000000E+00
  0.00000000E+00  0.00000000E+00  0.00000000E+00
  0.00000000E+00  0.00000000E+00  0.00000000E+00
  0.00000000E+00  0.00000000E+00  0.00000000E+00
  0.00000000E+00  0.00000000E+00  0.00000000E+00
  0.00000000E+00  0.00000000E+00  0.00000000E+00
  0.00000000E+00  0.00000000E+00  0.00000000E+00
  0.00000000E+00  0.00000000E+00  0.00000000E+00
  0.00000000E+00  0.00000000E+00  0.00000000E+00
  0.00000000E+00  0.00000000E+00  0.00000000E+00
  0.00000000E+00  0.00000000E+00  0.00000000E+00
