  18  18   0   0
  0.8680556E+03  0.2500000E-08  0.2500000E-08  0.2500000E-08  0.1500000E-16
  1.000000000000000E-004
  CAR 
 unknown system                          
      1.57403257    -22.23241478  301     -5.39927263      1.00000000
    -22.232  0.0000E+00  0.0000E+00  0.0000E+00  0.0000E+00
    -22.153  0.0000E+00  0.0000E+00  0.0000E+00  0.0000E+00
    -22.074  0.0000E+00  0.0000E+00  0.0000E+00  0.0000E+00
    -21.994  0.0000E+00  0.0000E+00  0.0000E+00  0.0000E+00
    -21.915  0.0000E+00  0.0000E+00  0.0000E+00  0.0000E+00
    -21.836  0.0000E+00  0.0000E+00  0.0000E+00  0.0000E+00
    -21.756  0.0000E+00  0.0000E+00  0.0000E+00  0.0000E+00
    -21.677  0.0000E+00  0.0000E+00  0.0000E+00  0.0000E+00
    -21.598  0.0000E+00  0.0000E+00  0.0000E+00  0.0000E+00
    -21.518  0.0000E+00  0.0000E+00  0.0000E+00  0.0000E+00
    -21.439  0.8295E-17  0.8295E-17  0.6582E-18  0.6582E-18
    -21.360  0.8150E-10  0.8150E-10  0.6468E-11  0.6468E-11
    -21.280  0.5974E-05  0.5974E-05  0.4741E-06  0.4741E-06
    -21.201  0.3809E-02  0.3809E-02  0.3028E-03  0.3028E-03
    -21.121  0.3567E-01  0.3567E-01  0.3134E-02  0.3134E-02
    -21.042  0.1027E-01  0.1027E-01  0.3948E-02  0.3948E-02
    -20.963  0.5500E-04  0.5500E-04  0.3953E-02  0.3953E-02
    -20.883  0.2804E-08  0.2803E-08  0.3953E-02  0.3953E-02
    -20.804  0.1084E-14  0.1084E-14  0.3953E-02  0.3953E-02
    -20.725  0.0000E+00  0.0000E+00  0.3953E-02  0.3953E-02
    -20.645  0.0000E+00  0.0000E+00  0.3953E-02  0.3953E-02
    -20.566  0.0000E+00  0.0000E+00  0.3953E-02  0.3953E-02
    -20.487  0.0000E+00  0.0000E+00  0.3953E-02  0.3953E-02
    -20.407  0.0000E+00  0.0000E+00  0.3953E-02  0.3953E-02
    -20.328  0.0000E+00  0.0000E+00  0.3953E-02  0.3953E-02
    -20.249  0.0000E+00  0.0000E+00  0.3953E-02  0.3953E-02
    -20.169  0.0000E+00  0.0000E+00  0.3953E-02  0.3953E-02
    -20.090  0.0000E+00  0.0000E+00  0.3953E-02  0.3953E-02
    -20.010  0.0000E+00  0.0000E+00  0.3953E-02  0.3953E-02
    -19.931  0.0000E+00  0.0000E+00  0.3953E-02  0.3953E-02
    -19.852  0.0000E+00  0.0000E+00  0.3953E-02  0.3953E-02
    -19.772  0.0000E+00  0.0000E+00  0.3953E-02  0.3953E-02
    -19.693  0.0000E+00  0.0000E+00  0.3953E-02  0.3953E-02
    -19.614  0.5530E-17  0.5530E-17  0.3953E-02  0.3953E-02
    -19.534  0.5436E-10  0.5436E-10  0.3953E-02  0.3953E-02
    -19.455  0.4599E-05  0.4599E-05  0.3953E-02  0.3953E-02
    -19.376  0.3358E-02  0.3358E-02  0.4219E-02  0.4219E-02
    -19.296  0.3516E-01  0.3516E-01  0.7009E-02  0.7009E-02
    -19.217  0.1122E-01  0.1122E-01  0.7900E-02  0.7900E-02
    -19.138  0.6848E-04  0.6848E-04  0.7905E-02  0.7905E-02
    -19.058  0.4023E-08  0.4023E-08  0.7905E-02  0.7905E-02
    -18.979  0.1803E-14  0.1803E-14  0.7905E-02  0.7905E-02
    -18.900  0.0000E+00  0.0000E+00  0.7905E-02  0.7905E-02
    -18.820  0.0000E+00  0.0000E+00  0.7905E-02  0.7905E-02
    -18.741  0.0000E+00  0.0000E+00  0.7905E-02  0.7905E-02
    -18.661  0.0000E+00  0.0000E+00  0.7905E-02  0.7905E-02
    -18.582  0.0000E+00  0.0000E+00  0.7905E-02  0.7905E-02
    -18.503  0.0000E+00  0.0000E+00  0.7905E-02  0.7905E-02
    -18.423  0.4996E-13  0.4996E-13  0.7905E-02  0.7905E-02
    -18.344  0.4162E-07  0.4162E-07  0.7905E-02  0.7905E-02
    -18.265  0.2720E-03  0.2720E-03  0.7927E-02  0.7927E-02
    -18.185  0.1875E-01  0.1875E-01  0.9414E-02  0.9414E-02
    -18.106  0.2950E-01  0.2950E-01  0.1176E-01  0.1176E-01
    -18.027  0.1292E-02  0.1292E-02  0.1186E-01  0.1186E-01
    -17.947  0.6996E-06  0.6996E-06  0.1186E-01  0.1186E-01
    -17.868  0.3382E-11  0.3382E-11  0.1186E-01  0.1186E-01
    -17.789  0.1312E-06  0.1312E-06  0.1186E-01  0.1186E-01
    -17.709  0.5211E-03  0.5211E-03  0.1190E-01  0.1190E-01
    -17.630  0.2310E-01  0.2310E-01  0.1373E-01  0.1373E-01
    -17.550  0.2546E-01  0.2546E-01  0.1575E-01  0.1575E-01
    -17.471  0.7289E-03  0.7289E-03  0.1581E-01  0.1581E-01
    -17.392  0.2411E-06  0.2411E-06  0.1581E-01  0.1581E-01
    -17.312  0.6428E-12  0.6428E-12  0.1581E-01  0.1581E-01
    -17.233  0.0000E+00  0.0000E+00  0.1581E-01  0.1581E-01
    -17.154  0.0000E+00  0.0000E+00  0.1581E-01  0.1581E-01
    -17.074  0.0000E+00  0.0000E+00  0.1581E-01  0.1581E-01
    -16.995  0.0000E+00  0.0000E+00  0.1581E-01  0.1581E-01
    -16.916  0.0000E+00  0.0000E+00  0.1581E-01  0.1581E-01
    -16.836  0.0000E+00  0.0000E+00  0.1581E-01  0.1581E-01
    -16.757  0.0000E+00  0.0000E+00  0.1581E-01  0.1581E-01
    -16.678  0.0000E+00  0.0000E+00  0.1581E-01  0.1581E-01
    -16.598  0.0000E+00  0.0000E+00  0.1581E-01  0.1581E-01
    -16.519  0.0000E+00  0.0000E+00  0.1581E-01  0.1581E-01
    -16.440  0.0000E+00  0.0000E+00  0.1581E-01  0.1581E-01
    -16.360  0.0000E+00  0.0000E+00  0.1581E-01  0.1581E-01
    -16.281  0.0000E+00  0.0000E+00  0.1581E-01  0.1581E-01
    -16.201  0.2064E-12  0.2064E-12  0.1581E-01  0.1581E-01
    -16.122  0.1109E-06  0.1109E-06  0.1581E-01  0.1581E-01
    -16.043  0.4744E-03  0.4744E-03  0.1585E-01  0.1585E-01
    -15.963  0.2245E-01  0.2245E-01  0.1763E-01  0.1763E-01
    -15.884  0.2609E-01  0.2609E-01  0.1970E-01  0.1970E-01
    -15.805  0.7965E-03  0.7965E-03  0.1976E-01  0.1976E-01
    -15.725  0.2836E-06  0.2836E-06  0.1976E-01  0.1976E-01
    -15.646  0.8166E-12  0.8166E-12  0.1976E-01  0.1976E-01
    -15.567  0.0000E+00  0.0000E+00  0.1976E-01  0.1976E-01
    -15.487  0.0000E+00  0.0000E+00  0.1976E-01  0.1976E-01
    -15.408  0.0000E+00  0.0000E+00  0.1976E-01  0.1976E-01
    -15.329  0.0000E+00  0.0000E+00  0.1976E-01  0.1976E-01
    -15.249  0.0000E+00  0.0000E+00  0.1976E-01  0.1976E-01
    -15.170  0.0000E+00  0.0000E+00  0.1976E-01  0.1976E-01
    -15.090  0.0000E+00  0.0000E+00  0.1976E-01  0.1976E-01
    -15.011  0.1457E-13  0.1457E-13  0.1976E-01  0.1976E-01
    -14.932  0.1760E-07  0.1760E-07  0.1976E-01  0.1976E-01
    -14.852  0.1651E-03  0.1651E-03  0.1978E-01  0.1978E-01
    -14.773  0.1572E-01  0.1572E-01  0.2102E-01  0.2102E-01
    -14.694  0.3203E-01  0.3203E-01  0.2357E-01  0.2357E-01
    -14.614  0.1893E-02  0.1893E-02  0.2372E-01  0.2372E-01
    -14.535  0.1459E-05  0.1459E-05  0.2372E-01  0.2372E-01
    -14.456  0.9405E-11  0.9405E-11  0.2372E-01  0.2372E-01
    -14.376  0.0000E+00  0.0000E+00  0.2372E-01  0.2372E-01
    -14.297  0.0000E+00  0.0000E+00  0.2372E-01  0.2372E-01
    -14.218  0.0000E+00  0.0000E+00  0.2372E-01  0.2372E-01
    -14.138  0.8172E-11  0.8172E-11  0.2372E-01  0.2372E-01
    -14.059  0.1329E-05  0.1329E-05  0.2372E-01  0.2372E-01
    -13.980  0.1805E-02  0.1805E-02  0.2386E-01  0.2386E-01
    -13.900  0.3172E-01  0.3172E-01  0.2638E-01  0.2638E-01
    -13.821  0.1610E-01  0.1610E-01  0.2765E-01  0.2765E-01
    -13.741  0.1763E-03  0.1763E-03  0.2767E-01  0.2767E-01
    -13.662  0.1970E-07  0.1970E-07  0.2767E-01  0.2767E-01
    -13.583  0.1710E-13  0.1710E-13  0.2767E-01  0.2767E-01
    -13.503  0.0000E+00  0.0000E+00  0.2767E-01  0.2767E-01
    -13.424  0.0000E+00  0.0000E+00  0.2767E-01  0.2767E-01
    -13.345  0.0000E+00  0.0000E+00  0.2767E-01  0.2767E-01
    -13.265  0.0000E+00  0.0000E+00  0.2767E-01  0.2767E-01
    -13.186  0.0000E+00  0.0000E+00  0.2767E-01  0.2767E-01
    -13.107  0.0000E+00  0.0000E+00  0.2767E-01  0.2767E-01
    -13.027  0.0000E+00  0.0000E+00  0.2767E-01  0.2767E-01
    -12.948  0.0000E+00  0.0000E+00  0.2767E-01  0.2767E-01
    -12.869  0.0000E+00  0.0000E+00  0.2767E-01  0.2767E-01
    -12.789  0.0000E+00  0.0000E+00  0.2767E-01  0.2767E-01
    -12.710  0.0000E+00  0.0000E+00  0.2767E-01  0.2767E-01
    -12.630  0.0000E+00  0.0000E+00  0.2767E-01  0.2767E-01
    -12.551  0.0000E+00  0.0000E+00  0.2767E-01  0.2767E-01
    -12.472  0.0000E+00  0.0000E+00  0.2767E-01  0.2767E-01
    -12.392  0.0000E+00  0.0000E+00  0.2767E-01  0.2767E-01
    -12.313  0.0000E+00  0.0000E+00  0.2767E-01  0.2767E-01
    -12.234  0.0000E+00  0.0000E+00  0.2767E-01  0.2767E-01
    -12.154  0.7763E-12  0.7763E-12  0.2767E-01  0.2767E-01
    -12.075  0.2741E-06  0.2741E-06  0.2767E-01  0.2767E-01
    -11.996  0.7818E-03  0.7818E-03  0.2773E-01  0.2773E-01
    -11.916  0.2596E-01  0.2596E-01  0.2979E-01  0.2979E-01
    -11.837  0.2258E-01  0.2258E-01  0.3158E-01  0.3158E-01
    -11.758  0.4839E-03  0.4839E-03  0.3162E-01  0.3162E-01
    -11.678  0.1149E-06  0.1149E-06  0.3162E-01  0.3162E-01
    -11.599  0.2646E-12  0.2646E-12  0.3162E-01  0.3162E-01
    -11.520  0.4002E-07  0.4002E-07  0.3162E-01  0.3162E-01
    -11.440  0.2660E-03  0.2660E-03  0.3164E-01  0.3164E-01
    -11.361  0.1860E-01  0.1860E-01  0.3312E-01  0.3312E-01
    -11.281  0.2962E-01  0.2962E-01  0.3547E-01  0.3547E-01
    -11.202  0.1316E-02  0.1316E-02  0.3557E-01  0.3557E-01
    -11.123  0.7243E-06  0.7243E-06  0.3557E-01  0.3557E-01
    -11.043  0.3291E-11  0.3291E-11  0.3557E-01  0.3557E-01
    -10.964  0.1084E-07  0.1084E-07  0.3557E-01  0.3557E-01
    -10.885  0.1240E-03  0.1240E-03  0.3558E-01  0.3558E-01
    -10.805  0.1414E-01  0.1414E-01  0.3671E-01  0.3671E-01
    -10.726  0.3323E-01  0.3323E-01  0.3934E-01  0.3934E-01
    -10.647  0.2310E-02  0.2310E-02  0.3953E-01  0.3953E-01
    -10.567  0.2159E-05  0.2159E-05  0.3953E-01  0.3953E-01
    -10.488  0.1705E-10  0.1705E-10  0.3953E-01  0.3953E-01
    -10.409  0.6101E-09  0.6101E-09  0.3953E-01  0.3953E-01
    -10.329  0.2145E-04  0.2145E-04  0.3953E-01  0.3953E-01
    -10.250  0.6869E-02  0.6869E-02  0.4007E-01  0.4007E-01
    -10.170  0.3676E-01  0.3676E-01  0.4299E-01  0.4299E-01
    -10.091  0.6157E-02  0.6157E-02  0.4348E-01  0.4348E-01
    -10.012  0.5345E-02  0.5345E-02  0.4390E-01  0.4390E-01
     -9.932  0.4764E-01  0.4764E-01  0.4768E-01  0.4768E-01
     -9.853  0.4317E-01  0.4317E-01  0.5111E-01  0.5111E-01
     -9.774  0.3462E-02  0.3462E-02  0.5138E-01  0.5138E-01
     -9.694  0.4917E-05  0.4917E-05  0.5138E-01  0.5138E-01
     -9.615  0.5104E-03  0.5104E-03  0.5142E-01  0.5142E-01
     -9.536  0.3242E-01  0.3242E-01  0.5400E-01  0.5400E-01
     -9.456  0.6204E-01  0.6204E-01  0.5892E-01  0.5892E-01
     -9.377  0.4643E-02  0.4643E-02  0.5929E-01  0.5929E-01
     -9.298  0.6302E-05  0.6302E-05  0.5929E-01  0.5929E-01
     -9.218  0.8290E-10  0.8290E-10  0.5929E-01  0.5929E-01
     -9.139  0.1106E-16  0.1106E-16  0.5929E-01  0.5929E-01
     -9.060  0.8824E-13  0.8824E-13  0.5929E-01  0.5929E-01
     -8.980  0.6175E-07  0.6175E-07  0.5929E-01  0.5929E-01
     -8.901  0.3409E-03  0.3409E-03  0.5932E-01  0.5932E-01
     -8.821  0.2021E-01  0.2021E-01  0.6092E-01  0.6092E-01
     -8.742  0.2819E-01  0.2819E-01  0.6316E-01  0.6316E-01
     -8.663  0.1070E-02  0.1070E-02  0.6324E-01  0.6324E-01
     -8.583  0.4908E-06  0.4908E-06  0.6324E-01  0.6324E-01
     -8.504  0.1961E-11  0.1961E-11  0.6324E-01  0.6324E-01
     -8.425  0.7732E-07  0.7732E-07  0.6324E-01  0.6324E-01
     -8.345  0.3872E-03  0.3872E-03  0.6327E-01  0.6327E-01
     -8.266  0.2106E-01  0.2106E-01  0.6494E-01  0.6494E-01
     -8.187  0.2740E-01  0.2740E-01  0.6712E-01  0.6712E-01
     -8.107  0.1717E-02  0.1717E-02  0.6725E-01  0.6725E-01
     -8.028  0.2575E-01  0.2575E-01  0.6930E-01  0.6930E-01
     -7.949  0.2281E-01  0.2281E-01  0.7111E-01  0.7111E-01
     -7.869  0.2127E-02  0.2127E-02  0.7128E-01  0.7128E-01
     -7.790  0.3105E-01  0.3105E-01  0.7374E-01  0.7374E-01
     -7.710  0.1693E-01  0.1693E-01  0.7508E-01  0.7508E-01
     -7.631  0.2027E-03  0.2027E-03  0.7510E-01  0.7510E-01
     -7.552  0.2502E-07  0.2502E-07  0.7510E-01  0.7510E-01
     -7.472  0.2406E-13  0.2406E-13  0.7510E-01  0.7510E-01
     -7.393  0.0000E+00  0.0000E+00  0.7510E-01  0.7510E-01
     -7.314  0.0000E+00  0.0000E+00  0.7510E-01  0.7510E-01
     -7.234  0.0000E+00  0.0000E+00  0.7510E-01  0.7510E-01
     -7.155  0.0000E+00  0.0000E+00  0.7510E-01  0.7510E-01
     -7.076  0.0000E+00  0.0000E+00  0.7510E-01  0.7510E-01
     -6.996  0.0000E+00  0.0000E+00  0.7510E-01  0.7510E-01
     -6.917  0.0000E+00  0.0000E+00  0.7510E-01  0.7510E-01
     -6.838  0.0000E+00  0.0000E+00  0.7510E-01  0.7510E-01
     -6.758  0.0000E+00  0.0000E+00  0.7510E-01  0.7510E-01
     -6.679  0.0000E+00  0.0000E+00  0.7510E-01  0.7510E-01
     -6.600  0.0000E+00  0.0000E+00  0.7510E-01  0.7510E-01
     -6.520  0.0000E+00  0.0000E+00  0.7510E-01  0.7510E-01
     -6.441  0.0000E+00  0.0000E+00  0.7510E-01  0.7510E-01
     -6.361  0.4587E-14  0.4587E-14  0.7510E-01  0.7510E-01
     -6.282  0.7802E-08  0.7802E-08  0.7510E-01  0.7510E-01
     -6.203  0.1020E-03  0.1020E-03  0.7511E-01  0.7511E-01
     -6.123  0.1313E-01  0.1313E-01  0.7615E-01  0.7615E-01
     -6.044  0.3395E-01  0.3395E-01  0.7884E-01  0.7884E-01
     -5.965  0.2628E-02  0.2628E-02  0.7905E-01  0.7905E-01
     -5.885  0.2793E-05  0.2793E-05  0.7905E-01  0.7905E-01
     -5.806  0.1851E-06  0.1851E-06  0.7905E-01  0.7905E-01
     -5.727  0.6305E-03  0.6305E-03  0.7910E-01  0.7910E-01
     -5.647  0.2443E-01  0.2443E-01  0.8104E-01  0.8104E-01
     -5.568  0.2414E-01  0.2414E-01  0.8296E-01  0.8296E-01
     -5.489  0.6047E-03  0.6047E-03  0.8300E-01  0.8300E-01
     -5.409  0.1716E-06  0.1716E-06  0.8300E-01  0.8300E-01
     -5.330  0.3902E-12  0.3902E-12  0.8300E-01  0.8300E-01
     -5.250  0.0000E+00  0.0000E+00  0.8300E-01  0.8300E-01
     -5.171  0.0000E+00  0.0000E+00  0.8300E-01  0.8300E-01
     -5.092  0.0000E+00  0.0000E+00  0.8300E-01  0.8300E-01
     -5.012  0.0000E+00  0.0000E+00  0.8300E-01  0.8300E-01
     -4.933  0.0000E+00  0.0000E+00  0.8300E-01  0.8300E-01
     -4.854  0.0000E+00  0.0000E+00  0.8300E-01  0.8300E-01
     -4.774  0.0000E+00  0.0000E+00  0.8300E-01  0.8300E-01
     -4.695  0.0000E+00  0.0000E+00  0.8300E-01  0.8300E-01
     -4.616  0.0000E+00  0.0000E+00  0.8300E-01  0.8300E-01
     -4.536  0.0000E+00  0.0000E+00  0.8300E-01  0.8300E-01
     -4.457  0.0000E+00  0.0000E+00  0.8300E-01  0.8300E-01
     -4.378  0.0000E+00  0.0000E+00  0.8300E-01  0.8300E-01
     -4.298  0.0000E+00  0.0000E+00  0.8300E-01  0.8300E-01
     -4.219  0.0000E+00  0.0000E+00  0.8300E-01  0.8300E-01
     -4.140  0.0000E+00  0.0000E+00  0.8300E-01  0.8300E-01
     -4.060  0.0000E+00  0.0000E+00  0.8300E-01  0.8300E-01
     -3.981  0.0000E+00  0.0000E+00  0.8300E-01  0.8300E-01
     -3.901  0.0000E+00  0.0000E+00  0.8300E-01  0.8300E-01
     -3.822  0.0000E+00  0.0000E+00  0.8300E-01  0.8300E-01
     -3.743  0.0000E+00  0.0000E+00  0.8300E-01  0.8300E-01
     -3.663  0.0000E+00  0.0000E+00  0.8300E-01  0.8300E-01
     -3.584  0.0000E+00  0.0000E+00  0.8300E-01  0.8300E-01
     -3.505  0.0000E+00  0.0000E+00  0.8300E-01  0.8300E-01
     -3.425  0.0000E+00  0.0000E+00  0.8300E-01  0.8300E-01
     -3.346  0.0000E+00  0.0000E+00  0.8300E-01  0.8300E-01
     -3.267  0.0000E+00  0.0000E+00  0.8300E-01  0.8300E-01
     -3.187  0.0000E+00  0.0000E+00  0.8300E-01  0.8300E-01
     -3.108  0.0000E+00  0.0000E+00  0.8300E-01  0.8300E-01
     -3.029  0.0000E+00  0.0000E+00  0.8300E-01  0.8300E-01
     -2.949  0.0000E+00  0.0000E+00  0.8300E-01  0.8300E-01
     -2.870  0.0000E+00  0.0000E+00  0.8300E-01  0.8300E-01
     -2.790  0.0000E+00  0.0000E+00  0.8300E-01  0.8300E-01
     -2.711  0.0000E+00  0.0000E+00  0.8300E-01  0.8300E-01
     -2.632  0.0000E+00  0.0000E+00  0.8300E-01  0.8300E-01
     -2.552  0.0000E+00  0.0000E+00  0.8300E-01  0.8300E-01
     -2.473  0.0000E+00  0.0000E+00  0.8300E-01  0.8300E-01
     -2.394  0.0000E+00  0.0000E+00  0.8300E-01  0.8300E-01
     -2.314  0.0000E+00  0.0000E+00  0.8300E-01  0.8300E-01
     -2.235  0.0000E+00  0.0000E+00  0.8300E-01  0.8300E-01
     -2.156  0.0000E+00  0.0000E+00  0.8300E-01  0.8300E-01
     -2.076  0.0000E+00  0.0000E+00  0.8300E-01  0.8300E-01
     -1.997  0.0000E+00  0.0000E+00  0.8300E-01  0.8300E-01
     -1.918  0.0000E+00  0.0000E+00  0.8300E-01  0.8300E-01
     -1.838  0.0000E+00  0.0000E+00  0.8300E-01  0.8300E-01
     -1.759  0.0000E+00  0.0000E+00  0.8300E-01  0.8300E-01
     -1.680  0.0000E+00  0.0000E+00  0.8300E-01  0.8300E-01
     -1.600  0.0000E+00  0.0000E+00  0.8300E-01  0.8300E-01
     -1.521  0.0000E+00  0.0000E+00  0.8300E-01  0.8300E-01
     -1.441  0.0000E+00  0.0000E+00  0.8300E-01  0.8300E-01
     -1.362  0.4535E-15  0.4535E-15  0.8300E-01  0.8300E-01
     -1.283  0.1502E-08  0.1502E-08  0.8300E-01  0.8300E-01
     -1.203  0.3752E-04  0.3752E-04  0.8301E-01  0.8301E-01
     -1.124  0.8753E-02  0.8753E-02  0.8370E-01  0.8370E-01
     -1.045  0.3813E-01  0.3813E-01  0.8673E-01  0.8673E-01
     -0.965  0.3638E-01  0.3638E-01  0.8961E-01  0.8961E-01
     -0.886  0.1614E-01  0.1614E-01  0.9090E-01  0.9090E-01
     -0.807  0.1770E-03  0.1770E-03  0.9091E-01  0.9091E-01
     -0.727  0.1984E-07  0.1984E-07  0.9091E-01  0.9091E-01
     -0.648  0.5740E-09  0.5739E-09  0.9091E-01  0.9091E-01
     -0.569  0.2065E-04  0.2064E-04  0.9091E-01  0.9091E-01
     -0.489  0.6754E-02  0.6754E-02  0.9145E-01  0.9145E-01
     -0.410  0.3676E-01  0.3676E-01  0.9436E-01  0.9436E-01
     -0.330  0.6304E-02  0.6305E-02  0.9486E-01  0.9486E-01
     -0.251  0.1002E-01  0.1002E-01  0.9566E-01  0.9566E-01
     -0.172  0.3580E-01  0.3580E-01  0.9850E-01  0.9850E-01
     -0.092  0.6906E-02  0.6905E-02  0.9905E-01  0.9905E-01
     -0.013  0.3496E-01  0.3496E-01  0.1018E+00  0.1018E+00
      0.066  0.3326E-01  0.3327E-01  0.1045E+00  0.1045E+00
      0.146  0.3665E-01  0.3665E-01  0.1074E+00  0.1074E+00
      0.225  0.7779E-01  0.7780E-01  0.1135E+00  0.1135E+00
      0.304  0.8860E-01  0.8860E-01  0.1206E+00  0.1206E+00
      0.384  0.1651E+00  0.1651E+00  0.1337E+00  0.1337E+00
      0.463  0.1776E+00  0.1776E+00  0.1478E+00  0.1478E+00
      0.542  0.7561E-01  0.7560E-01  0.1538E+00  0.1538E+00
      0.622  0.4814E-02  0.4815E-02  0.1541E+00  0.1541E+00
      0.701  0.6387E-05  0.6392E-05  0.1542E+00  0.1542E+00
      0.780  0.8283E-10  0.8295E-10  0.1542E+00  0.1542E+00
      0.860  0.1106E-16  0.1106E-16  0.1542E+00  0.1542E+00
      0.939  0.0000E+00  0.0000E+00  0.1542E+00  0.1542E+00
      1.019  0.0000E+00  0.0000E+00  0.1542E+00  0.1542E+00
      1.098  0.0000E+00  0.0000E+00  0.1542E+00  0.1542E+00
      1.177  0.0000E+00  0.0000E+00  0.1542E+00  0.1542E+00
      1.257  0.0000E+00  0.0000E+00  0.1542E+00  0.1542E+00
      1.336  0.0000E+00  0.0000E+00  0.1542E+00  0.1542E+00
      1.415  0.0000E+00  0.0000E+00  0.1542E+00  0.1542E+00
      1.495  0.0000E+00  0.0000E+00  0.1542E+00  0.1542E+00
      1.574  0.0000E+00  0.0000E+00  0.1542E+00  0.1542E+00
