       N       E                     dE             d eps       ncg     rms          rms(c)
DAV:   1     0.280031394514E+03    0.28003E+03   -0.86544E+03   208   0.496E+02
DAV:   2     0.626705565480E+02   -0.21736E+03   -0.20608E+03   286   0.889E+01
DAV:   3    -0.903198863851E+02   -0.15299E+03   -0.15130E+03   247   0.600E+01
DAV:   4    -0.116139054924E+03   -0.25819E+02   -0.25798E+02   221   0.361E+01
DAV:   5    -0.116762909064E+03   -0.62385E+00   -0.62355E+00   221   0.696E+00    0.214E+01
RMM:   6    -0.782706238597E+02    0.38492E+02   -0.30734E+01   156   0.197E+01    0.110E+01
RMM:   7    -0.948966319391E+02   -0.16626E+02   -0.24097E+01   156   0.164E+01    0.597E+00
RMM:   8    -0.984045973374E+02   -0.35080E+01   -0.68429E+00   157   0.853E+00    0.422E+00
RMM:   9    -0.102579583725E+03   -0.41750E+01   -0.21866E+00   156   0.502E+00    0.219E+00
RMM:  10    -0.105781097560E+03   -0.32015E+01   -0.15050E+00   156   0.372E+00    0.136E+00
RMM:  11    -0.106252481845E+03   -0.47138E+00   -0.42870E-01   159   0.171E+00    0.121E+00
RMM:  12    -0.107064320341E+03   -0.81184E+00   -0.24795E-01   156   0.170E+00    0.893E-01
RMM:  13    -0.106864930759E+03    0.19939E+00   -0.41979E-01   157   0.180E+00    0.745E-01
RMM:  14    -0.107467664931E+03   -0.60273E+00   -0.13909E-01   157   0.844E-01    0.434E-01
RMM:  15    -0.108362119511E+03   -0.89445E+00   -0.10004E-01   157   0.733E-01    0.258E-01
RMM:  16    -0.108808695990E+03   -0.44658E+00   -0.55574E-02   162   0.482E-01    0.189E-01
RMM:  17    -0.108939675852E+03   -0.13098E+00   -0.10494E-02   158   0.272E-01    0.136E-01
RMM:  18    -0.109172127047E+03   -0.23245E+00   -0.67171E-03   156   0.223E-01    0.906E-02
RMM:  19    -0.109209810435E+03   -0.37683E-01   -0.16678E-03   161   0.113E-01    0.648E-02
RMM:  20    -0.109249461992E+03   -0.39652E-01   -0.96082E-04   156   0.930E-02    0.285E-02
RMM:  21    -0.109270405558E+03   -0.20944E-01   -0.30024E-04   159   0.548E-02    0.162E-02
RMM:  22    -0.109273782946E+03   -0.33774E-02   -0.10343E-04   161   0.311E-02    0.902E-03
RMM:  23    -0.109278416931E+03   -0.46340E-02   -0.61747E-05   157   0.254E-02    0.928E-03
RMM:  24    -0.109279044597E+03   -0.62767E-03   -0.16201E-05   153   0.135E-02    0.392E-03
RMM:  25    -0.109279537222E+03   -0.49263E-03   -0.69483E-06   144   0.849E-03    0.299E-03
RMM:  26    -0.109280625338E+03   -0.10881E-02   -0.92228E-06   143   0.787E-03    0.200E-03
RMM:  27    -0.109280915375E+03   -0.29004E-03   -0.26016E-06   129   0.464E-03    0.218E-03
RMM:  28    -0.109281235671E+03   -0.32030E-03   -0.18750E-06   122   0.338E-03    0.125E-03
RMM:  29    -0.109281460657E+03   -0.22499E-03   -0.13721E-06   118   0.328E-03    0.120E-03
RMM:  30    -0.109281522628E+03   -0.61972E-04   -0.37295E-07   113   0.228E-03    0.629E-04
RMM:  31    -0.109281551784E+03   -0.29156E-04   -0.18213E-07   107   0.155E-03    0.258E-04
RMM:  32    -0.109281574137E+03   -0.22353E-04   -0.70494E-08    96   0.103E-03    0.232E-04
RMM:  33    -0.109281593200E+03   -0.19063E-04   -0.36600E-08    83   0.826E-04    0.134E-04
RMM:  34    -0.109281600592E+03   -0.73918E-05   -0.11154E-08    77   0.732E-04    0.810E-05
RMM:  35    -0.109281608038E+03   -0.74463E-05   -0.67675E-09    75   0.735E-04    0.876E-05
RMM:  36    -0.109281613269E+03   -0.52305E-05    0.00000E+00    72   0.672E-04    0.506E-05
RMM:  37    -0.109281615012E+03   -0.17437E-05    0.00000E+00    72   0.645E-04    0.233E-05
RMM:  38    -0.109281615683E+03   -0.67023E-06    0.00000E+00    72   0.637E-04
   1 F= -.10975370E+03 E0= -.10975370E+03  d E =-.980447E-15  mag=     0.0000
       N       E                     dE             d eps       ncg     rms          rms(c)
DAV:   1    -0.109280606338E+03    0.10087E-02   -0.83332E-02   182   0.113E+00    0.972E-02
RMM:   2    -0.109280556721E+03    0.49618E-04   -0.55930E-04   156   0.888E-02    0.563E-02
RMM:   3    -0.109280561753E+03   -0.50320E-05   -0.37032E-04   157   0.593E-02    0.111E-02
RMM:   4    -0.109280562285E+03   -0.53214E-06   -0.44972E-05   156   0.249E-02    0.888E-03
RMM:   5    -0.109280560165E+03    0.21194E-05   -0.31498E-05   150   0.159E-02    0.476E-03
RMM:   6    -0.109280561609E+03   -0.14437E-05   -0.29718E-06   132   0.670E-03    0.234E-03
RMM:   7    -0.109280561984E+03   -0.37471E-06   -0.17114E-06   123   0.385E-03
   2 F= -.10975252E+03 E0= -.10975252E+03  d E =-.165800E-12  mag=     0.0000
       N       E                     dE             d eps       ncg     rms          rms(c)
DAV:   1    -0.109280956500E+03   -0.39489E-03   -0.33499E-01   182   0.227E+00    0.195E-01
RMM:   2    -0.109280748801E+03    0.20770E-03   -0.19404E-03   156   0.173E-01    0.113E-01
RMM:   3    -0.109280760534E+03   -0.11733E-04   -0.14020E-03   156   0.117E-01    0.221E-02
RMM:   4    -0.109280755981E+03    0.45530E-05   -0.14689E-04   162   0.480E-02    0.174E-02
RMM:   5    -0.109280756378E+03   -0.39752E-06   -0.16660E-04   156   0.352E-02    0.132E-02
RMM:   6    -0.109280749796E+03    0.65820E-05   -0.22477E-05   148   0.153E-02    0.407E-03
RMM:   7    -0.109280751782E+03   -0.19856E-05   -0.10901E-05   144   0.933E-03    0.203E-03
RMM:   8    -0.109280753571E+03   -0.17895E-05   -0.12759E-06   118   0.456E-03    0.104E-03
RMM:   9    -0.109280754411E+03   -0.83962E-06   -0.31849E-07   110   0.207E-03
   3 F= -.10975297E+03 E0= -.10975297E+03  d E =-.527336E-12  mag=     0.0000
       N       E                     dE             d eps       ncg     rms          rms(c)
DAV:   1    -0.109280176479E+03    0.57709E-03   -0.17957E-01   208   0.167E+00    0.186E-01
RMM:   2    -0.109279723772E+03    0.45271E-03   -0.19321E-03   156   0.172E-01    0.105E-01
RMM:   3    -0.109279704069E+03    0.19703E-04   -0.21047E-03   156   0.131E-01    0.306E-02
RMM:   4    -0.109279690150E+03    0.13919E-04   -0.18493E-04   160   0.548E-02    0.258E-02
RMM:   5    -0.109279689489E+03    0.66056E-06   -0.31277E-04   156   0.468E-02    0.184E-02
RMM:   6    -0.109279674199E+03    0.15290E-04   -0.32311E-05   150   0.191E-02    0.668E-03
RMM:   7    -0.109279675514E+03   -0.13148E-05   -0.27782E-05   148   0.138E-02    0.337E-03
RMM:   8    -0.109279676088E+03   -0.57368E-06   -0.21324E-06   130   0.596E-03
   4 F= -.10975174E+03 E0= -.10975174E+03  d E =-.506849E-12  mag=     0.0000
       N       E                     dE             d eps       ncg     rms          rms(c)
DAV:   1    -0.109280404514E+03   -0.72900E-03   -0.35614E-01   208   0.236E+00    0.249E-01
RMM:   2    -0.109279660170E+03    0.74434E-03   -0.31824E-03   156   0.225E-01    0.142E-01
RMM:   3    -0.109279625713E+03    0.34457E-04   -0.35627E-03   156   0.167E-01    0.410E-02
RMM:   4    -0.109279593849E+03    0.31865E-04   -0.29162E-04   158   0.696E-02    0.338E-02
RMM:   5    -0.109279585099E+03    0.87493E-05   -0.54717E-04   156   0.618E-02    0.237E-02
RMM:   6    -0.109279562720E+03    0.22379E-04   -0.51688E-05   150   0.248E-02    0.952E-03
RMM:   7    -0.109279563099E+03   -0.37924E-06   -0.32430E-05   148   0.153E-02    0.186E-03
RMM:   8    -0.109279565406E+03   -0.23064E-05   -0.49722E-06   144   0.829E-03    0.253E-03
RMM:   9    -0.109279566922E+03   -0.15160E-05   -0.64611E-07   114   0.313E-03    0.208E-03
RMM:  10    -0.109279570052E+03   -0.31298E-05   -0.55533E-07   110   0.216E-03    0.752E-04
RMM:  11    -0.109279571248E+03   -0.11966E-05   -0.54621E-07   109   0.216E-03    0.523E-04
RMM:  12    -0.109279574281E+03   -0.30326E-05   -0.28734E-07   107   0.161E-03    0.787E-04
RMM:  13    -0.109279575489E+03   -0.12082E-05   -0.90157E-08    96   0.963E-04    0.250E-04
RMM:  14    -0.109279576534E+03   -0.10454E-05   -0.17335E-07   108   0.119E-03    0.396E-04
RMM:  15    -0.109279577584E+03   -0.10493E-05   -0.11817E-08    76   0.653E-04    0.152E-04
RMM:  16    -0.109279578014E+03   -0.43029E-06   -0.58586E-08    90   0.819E-04
   5 F= -.10975169E+03 E0= -.10975169E+03  d E =-.216688E-12  mag=     0.0000
       N       E                     dE             d eps       ncg     rms          rms(c)
DAV:   1    -0.109280761868E+03   -0.11843E-02   -0.18750E-01   208   0.166E+00    0.209E-01
RMM:   2    -0.109280081042E+03    0.68083E-03   -0.22263E-03   156   0.181E-01    0.118E-01
RMM:   3    -0.109280044570E+03    0.36472E-04   -0.28877E-03   156   0.149E-01    0.375E-02
RMM:   4    -0.109280021660E+03    0.22910E-04   -0.24776E-04   159   0.640E-02    0.317E-02
RMM:   5    -0.109280006035E+03    0.15625E-04   -0.34491E-04   156   0.495E-02    0.158E-02
RMM:   6    -0.109279996767E+03    0.92674E-05   -0.24523E-05   150   0.192E-02    0.765E-03
RMM:   7    -0.109279996767E+03    0.45088E-09   -0.18622E-05   146   0.117E-02    0.178E-03
RMM:   8    -0.109279998856E+03   -0.20886E-05   -0.29368E-06   127   0.626E-03    0.237E-03
RMM:   9    -0.109280000465E+03   -0.16094E-05   -0.34828E-07   109   0.225E-03    0.139E-03
RMM:  10    -0.109280002778E+03   -0.23133E-05   -0.96410E-07   112   0.276E-03    0.528E-04
RMM:  11    -0.109280003804E+03   -0.10260E-05   -0.15937E-07   104   0.146E-03    0.533E-04
RMM:  12    -0.109280005427E+03   -0.16222E-05   -0.77841E-08    94   0.938E-04    0.115E-04
RMM:  13    -0.109280007002E+03   -0.15754E-05   -0.14977E-07   104   0.107E-03    0.286E-04
RMM:  14    -0.109280007696E+03   -0.69430E-06   -0.25565E-08    79   0.645E-04
   6 F= -.10975207E+03 E0= -.10975207E+03  d E =-.307815E-12  mag=     0.0000
       N       E                     dE             d eps       ncg     rms          rms(c)
DAV:   1    -0.109280633342E+03   -0.62634E-03   -0.34610E-01   208   0.233E+00    0.226E-01
RMM:   2    -0.109280151092E+03    0.48225E-03   -0.25854E-03   156   0.196E-01    0.131E-01
RMM:   3    -0.109280124849E+03    0.26242E-04   -0.24354E-03   156   0.145E-01    0.335E-02
RMM:   4    -0.109280104213E+03    0.20636E-04   -0.21304E-04   160   0.591E-02    0.271E-02
RMM:   5    -0.109280102178E+03    0.20353E-05   -0.39270E-04   156   0.524E-02    0.212E-02
RMM:   6    -0.109280084216E+03    0.17962E-04   -0.44851E-05   150   0.218E-02    0.742E-03
RMM:   7    -0.109280087266E+03   -0.30500E-05   -0.28883E-05   148   0.145E-02    0.251E-03
RMM:   8    -0.109280089750E+03   -0.24844E-05   -0.22843E-06   128   0.642E-03    0.126E-03
RMM:   9    -0.109280093883E+03   -0.41330E-05   -0.96674E-07   116   0.340E-03    0.191E-03
RMM:  10    -0.109280096637E+03   -0.27538E-05   -0.24302E-07   108   0.159E-03    0.147E-03
RMM:  11    -0.109280100016E+03   -0.33792E-05   -0.13766E-06   120   0.311E-03    0.919E-04
RMM:  12    -0.109280101503E+03   -0.14874E-05   -0.30191E-07   110   0.194E-03    0.135E-03
RMM:  13    -0.109280103626E+03   -0.21229E-05   -0.75686E-08    92   0.916E-04    0.890E-04
RMM:  14    -0.109280104966E+03   -0.13398E-05   -0.41639E-07   108   0.177E-03    0.315E-04
RMM:  15    -0.109280105345E+03   -0.37935E-06   -0.36574E-08    92   0.888E-04
   7 F= -.10975222E+03 E0= -.10975222E+03  d E =-.692381E-12  mag=     0.0000
       N       E                     dE             d eps       ncg     rms          rms(c)
DAV:   1    -0.109281010202E+03   -0.90524E-03   -0.17104E-01   208   0.162E+00    0.152E-01
RMM:   2    -0.109280792445E+03    0.21776E-03   -0.13624E-03   156   0.148E-01    0.876E-02
RMM:   3    -0.109280794771E+03   -0.23258E-05   -0.13152E-03   156   0.105E-01    0.237E-02
RMM:   4    -0.109280791084E+03    0.36868E-05   -0.13797E-04   160   0.465E-02    0.219E-02
RMM:   5    -0.109280774737E+03    0.16347E-04   -0.55093E-05   154   0.230E-02    0.590E-03
RMM:   6    -0.109280779552E+03   -0.48152E-05   -0.40032E-05   152   0.183E-02    0.737E-03
RMM:   7    -0.109280777917E+03    0.16345E-05   -0.67603E-06   142   0.827E-03    0.165E-03
RMM:   8    -0.109280780470E+03   -0.25524E-05   -0.86298E-06   144   0.795E-03    0.388E-03
RMM:   9    -0.109280780235E+03    0.23466E-06   -0.99935E-07   114   0.344E-03
   8 F= -.10975273E+03 E0= -.10975273E+03  d E =-.383739E-12  mag=     0.0000
       N       E                     dE             d eps       ncg     rms          rms(c)
DAV:   1    -0.109280914741E+03   -0.13427E-03   -0.32955E-01   208   0.190E+00    0.183E-01
RMM:   2    -0.109280793687E+03    0.12105E-03   -0.17121E-03   156   0.151E-01    0.108E-01
RMM:   3    -0.109280822510E+03   -0.28824E-04   -0.11085E-03   156   0.107E-01    0.200E-02
RMM:   4    -0.109280818551E+03    0.39596E-05   -0.13043E-04   158   0.436E-02    0.142E-02
RMM:   5    -0.109280820080E+03   -0.15295E-05   -0.10685E-04   154   0.294E-02    0.866E-03
RMM:   6    -0.109280818210E+03    0.18702E-05   -0.12543E-05   146   0.128E-02    0.319E-03
RMM:   7    -0.109280822589E+03   -0.43785E-05   -0.11903E-05   146   0.991E-03    0.349E-03
RMM:   8    -0.109280823550E+03   -0.96104E-06   -0.18169E-06   125   0.475E-03
   9 F= -.10975305E+03 E0= -.10975305E+03  d E =-.104125E-11  mag=     0.0000
       N       E                     dE             d eps       ncg     rms          rms(c)
DAV:   1    -0.109281105148E+03   -0.28256E-03   -0.16522E-01   208   0.138E+00    0.134E-01
RMM:   2    -0.109281012108E+03    0.93040E-04   -0.88768E-04   156   0.111E-01    0.780E-02
RMM:   3    -0.109281031899E+03   -0.19790E-04   -0.63196E-04   156   0.777E-02    0.156E-02
RMM:   4    -0.109281029281E+03    0.26177E-05   -0.67394E-05   156   0.316E-02    0.113E-02
RMM:   5    -0.109281031138E+03   -0.18575E-05   -0.64818E-05   154   0.226E-02    0.736E-03
RMM:   6    -0.109281029201E+03    0.19377E-05   -0.77243E-06   142   0.101E-02    0.250E-03
RMM:   7    -0.109281030775E+03   -0.15746E-05   -0.47770E-06   138   0.651E-03    0.162E-03
RMM:   8    -0.109281032342E+03   -0.15668E-05   -0.69638E-07   114   0.379E-03    0.117E-03
RMM:   9    -0.109281033069E+03   -0.72678E-06   -0.20287E-07   108   0.188E-03
  10 F= -.10975311E+03 E0= -.10975311E+03  d E =-.334191E-12  mag=     0.0000
       N       E                     dE             d eps       ncg     rms          rms(c)
DAV:   1    -0.109281050182E+03   -0.17839E-04   -0.32470E-01   208   0.196E+00    0.168E-01
RMM:   2    -0.109281029101E+03    0.21081E-04   -0.13736E-03   156   0.140E-01    0.100E-01
RMM:   3    -0.109281068413E+03   -0.39312E-04   -0.62393E-04   156   0.835E-02    0.124E-02
RMM:   4    -0.109281071841E+03   -0.34281E-05   -0.89819E-05   156   0.347E-02    0.868E-03
RMM:   5    -0.109281074081E+03   -0.22401E-05   -0.45906E-05   150   0.211E-02    0.611E-03
RMM:   6    -0.109281074459E+03   -0.37769E-06   -0.66791E-06   140   0.970E-03
  11 F= -.10975317E+03 E0= -.10975317E+03  d E =-.741129E-12  mag=     0.0000
       N       E                     dE             d eps       ncg     rms          rms(c)
DAV:   1    -0.109278839250E+03    0.22348E-02   -0.17063E-01   182   0.142E+00    0.155E-01
RMM:   2    -0.109278616938E+03    0.22231E-03   -0.11581E-03   156   0.125E-01    0.884E-02
RMM:   3    -0.109278637113E+03   -0.20175E-04   -0.10768E-03   156   0.951E-02    0.225E-02
RMM:   4    -0.109278627393E+03    0.97204E-05   -0.95948E-05   154   0.389E-02    0.175E-02
RMM:   5    -0.109278627966E+03   -0.57295E-06   -0.15675E-04   156   0.337E-02    0.130E-02
RMM:   6    -0.109278621204E+03    0.67620E-05   -0.18679E-05   148   0.149E-02    0.415E-03
RMM:   7    -0.109278622336E+03   -0.11325E-05   -0.96586E-06   144   0.895E-03    0.153E-03
RMM:   8    -0.109278623560E+03   -0.12233E-05   -0.12260E-06   118   0.548E-03    0.132E-03
RMM:   9    -0.109278624474E+03   -0.91454E-06   -0.32296E-07   114   0.285E-03
  12 F= -.10975077E+03 E0= -.10975077E+03  d E =-.703494E-12  mag=     0.0000
       N       E                     dE             d eps       ncg     rms          rms(c)
DAV:   1    -0.109280045522E+03   -0.14220E-02   -0.36900E-01   208   0.206E+00    0.298E-01
RMM:   2    -0.109278679707E+03    0.13658E-02   -0.51542E-03   156   0.254E-01    0.165E-01
RMM:   3    -0.109278616421E+03    0.63286E-04   -0.53239E-03   156   0.207E-01    0.529E-02
RMM:   4    -0.109278548820E+03    0.67601E-04   -0.42422E-04   158   0.809E-02    0.367E-02
RMM:   5    -0.109278563398E+03   -0.14578E-04   -0.62987E-04   156   0.664E-02    0.264E-02
RMM:   6    -0.109278530601E+03    0.32797E-04   -0.93383E-05   154   0.305E-02    0.569E-03
RMM:   7    -0.109278536552E+03   -0.59511E-05   -0.53400E-05   150   0.204E-02    0.692E-03
RMM:   8    -0.109278537429E+03   -0.87695E-06   -0.47049E-06   140   0.858E-03
  13 F= -.10975057E+03 E0= -.10975057E+03  d E =-.110906E-11  mag=     0.0000
       N       E                     dE             d eps       ncg     rms          rms(c)
DAV:   1    -0.109280845976E+03   -0.23094E-02   -0.17307E-01   208   0.165E+00    0.166E-01
RMM:   2    -0.109280656259E+03    0.18972E-03   -0.16928E-03   156   0.166E-01    0.969E-02
RMM:   3    -0.109280631038E+03    0.25221E-04   -0.91903E-04   156   0.103E-01    0.158E-02
RMM:   4    -0.109280630514E+03    0.52429E-06   -0.93330E-05   156   0.406E-02    0.110E-02
RMM:   5    -0.109280629298E+03    0.12163E-05   -0.52717E-05   154   0.243E-02    0.648E-03
RMM:   6    -0.109280629401E+03   -0.10327E-06   -0.78633E-06   144   0.121E-02
  14 F= -.10975259E+03 E0= -.10975259E+03  d E =-.274811E-12  mag=    -0.0000
       N       E                     dE             d eps       ncg     rms          rms(c)
DAV:   1    -0.109280911366E+03   -0.28207E-03   -0.33446E-01   208   0.227E+00    0.194E-01
RMM:   2    -0.109280716640E+03    0.19473E-03   -0.19115E-03   156   0.171E-01    0.112E-01
RMM:   3    -0.109280729671E+03   -0.13031E-04   -0.13517E-03   156   0.115E-01    0.213E-02
RMM:   4    -0.109280726281E+03    0.33903E-05   -0.14422E-04   162   0.475E-02    0.169E-02
RMM:   5    -0.109280727586E+03   -0.13051E-05   -0.15895E-04   156   0.352E-02    0.128E-02
RMM:   6    -0.109280721251E+03    0.63346E-05   -0.22007E-05   150   0.169E-02    0.400E-03
RMM:   7    -0.109280722959E+03   -0.17077E-05   -0.99057E-06   144   0.966E-03    0.185E-03
RMM:   8    -0.109280724985E+03   -0.20265E-05   -0.16915E-06   124   0.651E-03    0.117E-03
RMM:   9    -0.109280725687E+03   -0.70169E-06   -0.44891E-07   114   0.311E-03
  15 F= -.10975294E+03 E0= -.10975294E+03  d E =-.505991E-12  mag=     0.0000
       N       E                     dE             d eps       ncg     rms          rms(c)
DAV:   1    -0.109278704178E+03    0.20208E-02   -0.16802E-01   208   0.164E+00    0.136E-01
RMM:   2    -0.109278605213E+03    0.98965E-04   -0.87929E-04   156   0.123E-01    0.806E-02
RMM:   3    -0.109278610615E+03   -0.54018E-05   -0.58868E-04   156   0.758E-02    0.148E-02
RMM:   4    -0.109278607112E+03    0.35030E-05   -0.57266E-05   152   0.305E-02    0.108E-02
RMM:   5    -0.109278606637E+03    0.47502E-06   -0.61738E-05   152   0.226E-02    0.797E-03
RMM:   6    -0.109278605145E+03    0.14919E-05   -0.84490E-06   146   0.100E-02    0.244E-03
RMM:   7    -0.109278606395E+03   -0.12499E-05   -0.37805E-06   140   0.582E-03    0.941E-04
RMM:   8    -0.109278607843E+03   -0.14482E-05   -0.50550E-07   112   0.302E-03    0.601E-04
RMM:   9    -0.109278609126E+03   -0.12832E-05   -0.23099E-07   112   0.211E-03    0.823E-04
RMM:  10    -0.109278610545E+03   -0.14185E-05   -0.10433E-07   107   0.137E-03    0.617E-04
RMM:  11    -0.109278612291E+03   -0.17463E-05   -0.30651E-07   107   0.157E-03    0.407E-04
RMM:  12    -0.109278613047E+03   -0.75540E-06   -0.51389E-08    92   0.893E-04
  16 F= -.10975073E+03 E0= -.10975073E+03  d E =-.716392E-12  mag=    -0.0000
       N       E                     dE             d eps       ncg     rms          rms(c)
DAV:   1    -0.109280230586E+03   -0.16183E-02   -0.37043E-01   208   0.234E+00    0.287E-01
RMM:   2    -0.109279010294E+03    0.12203E-02   -0.44007E-03   156   0.256E-01    0.162E-01
RMM:   3    -0.109278939535E+03    0.70759E-04   -0.53710E-03   156   0.203E-01    0.505E-02
RMM:   4    -0.109278894936E+03    0.44599E-04   -0.45107E-04   158   0.865E-02    0.418E-02
RMM:   5    -0.109278883625E+03    0.11311E-04   -0.74325E-04   156   0.723E-02    0.267E-02
RMM:   6    -0.109278852335E+03    0.31289E-04   -0.67383E-05   152   0.286E-02    0.105E-02
RMM:   7    -0.109278855880E+03   -0.35444E-05   -0.69261E-05   150   0.218E-02    0.585E-03
RMM:   8    -0.109278857000E+03   -0.11203E-05   -0.57810E-06   142   0.941E-03    0.233E-03
RMM:   9    -0.109278861059E+03   -0.40589E-05   -0.17667E-06   126   0.415E-03    0.807E-04
RMM:  10    -0.109278863115E+03   -0.20563E-05   -0.38684E-07   112   0.215E-03    0.640E-04
RMM:  11    -0.109278865669E+03   -0.25537E-05   -0.32094E-07   106   0.174E-03    0.213E-04
RMM:  12    -0.109278868532E+03   -0.28632E-05   -0.42428E-07   110   0.193E-03    0.938E-04
RMM:  13    -0.109278869955E+03   -0.14227E-05   -0.12143E-07   100   0.109E-03    0.728E-04
RMM:  14    -0.109278871099E+03   -0.11444E-05   -0.19219E-07   106   0.121E-03    0.688E-05
RMM:  15    -0.109278871580E+03   -0.48061E-06   -0.51684E-08    90   0.859E-04
  17 F= -.10975092E+03 E0= -.10975092E+03  d E =-.416787E-12  mag=    -0.0000
       N       E                     dE             d eps       ncg     rms          rms(c)
DAV:   1    -0.109280988603E+03   -0.21175E-02   -0.16714E-01   208   0.163E+00    0.138E-01
RMM:   2    -0.109280850280E+03    0.13832E-03   -0.94274E-04   156   0.120E-01    0.802E-02
RMM:   3    -0.109280862332E+03   -0.12053E-04   -0.75518E-04   156   0.808E-02    0.174E-02
RMM:   4    -0.109280855327E+03    0.70054E-05   -0.65256E-05   150   0.322E-02    0.124E-02
RMM:   5    -0.109280855909E+03   -0.58174E-06   -0.80791E-05   150   0.249E-02    0.930E-03
RMM:   6    -0.109280853420E+03    0.24887E-05   -0.11182E-05   146   0.109E-02    0.269E-03
RMM:   7    -0.109280855488E+03   -0.20681E-05   -0.62421E-06   142   0.702E-03    0.153E-03
RMM:   8    -0.109280856977E+03   -0.14890E-05   -0.66757E-07   114   0.332E-03    0.108E-03
RMM:   9    -0.109280858854E+03   -0.18771E-05   -0.25514E-07   112   0.186E-03    0.876E-04
RMM:  10    -0.109280860362E+03   -0.15082E-05   -0.21068E-07   108   0.154E-03    0.281E-04
RMM:  11    -0.109280862217E+03   -0.18549E-05   -0.38665E-07   110   0.185E-03    0.764E-04
RMM:  12    -0.109280863378E+03   -0.11611E-05   -0.73486E-08    94   0.100E-03    0.638E-04
RMM:  13    -0.109280864326E+03   -0.94748E-06   -0.95822E-08    98   0.968E-04
  18 F= -.10975294E+03 E0= -.10975294E+03  d E =-.365666E-12  mag=    -0.0000
       N       E                     dE             d eps       ncg     rms          rms(c)
DAV:   1    -0.109281008654E+03   -0.14528E-03   -0.32917E-01   208   0.228E+00    0.179E-01
RMM:   2    -0.109280921657E+03    0.86997E-04   -0.15780E-03   156   0.154E-01    0.106E-01
RMM:   3    -0.109280952485E+03   -0.30828E-04   -0.85268E-04   156   0.954E-02    0.163E-02
RMM:   4    -0.109280951986E+03    0.49865E-06   -0.99101E-05   158   0.388E-02    0.121E-02
RMM:   5    -0.109280954919E+03   -0.29331E-05   -0.94890E-05   154   0.273E-02    0.980E-03
RMM:   6    -0.109280952640E+03    0.22797E-05   -0.13034E-05   146   0.120E-02    0.322E-03
RMM:   7    -0.109280956019E+03   -0.33798E-05   -0.62725E-06   138   0.733E-03    0.131E-03
RMM:   8    -0.109280960163E+03   -0.41435E-05   -0.11719E-06   116   0.387E-03    0.931E-04
RMM:   9    -0.109280963931E+03   -0.37678E-05   -0.63368E-07   112   0.261E-03    0.156E-03
RMM:  10    -0.109280967071E+03   -0.31406E-05   -0.34714E-07   110   0.189E-03    0.743E-04
RMM:  11    -0.109280969585E+03   -0.25137E-05   -0.75914E-07   112   0.245E-03    0.776E-04
RMM:  12    -0.109280971165E+03   -0.15800E-05   -0.12374E-07   104   0.125E-03    0.670E-04
RMM:  13    -0.109280973280E+03   -0.21149E-05   -0.11749E-07    96   0.979E-04    0.225E-04
RMM:  14    -0.109280973834E+03   -0.55356E-06   -0.50643E-08    92   0.853E-04
  19 F= -.10975307E+03 E0= -.10975307E+03  d E =-.869704E-12  mag=    -0.0000
       N       E                     dE             d eps       ncg     rms          rms(c)
DAV:   1    -0.109280363284E+03    0.61000E-03   -0.16671E-01   208   0.177E+00    0.137E-01
RMM:   2    -0.109280263775E+03    0.99509E-04   -0.11879E-03   156   0.152E-01    0.805E-02
RMM:   3    -0.109280272250E+03   -0.84751E-05   -0.57117E-04   156   0.895E-02    0.163E-02
RMM:   4    -0.109280268995E+03    0.32547E-05   -0.67600E-05   160   0.360E-02    0.818E-03
RMM:   5    -0.109280271026E+03   -0.20307E-05   -0.16983E-05   158   0.174E-02    0.245E-03
RMM:   6    -0.109280272941E+03   -0.19153E-05   -0.40029E-06   136   0.797E-03    0.154E-03
RMM:   7    -0.109280275544E+03   -0.26025E-05   -0.11146E-06   114   0.399E-03    0.886E-04
RMM:   8    -0.109280276872E+03   -0.13282E-05   -0.27700E-07   114   0.218E-03    0.327E-04
RMM:   9    -0.109280279775E+03   -0.29035E-05   -0.27180E-07   114   0.169E-03    0.277E-04
RMM:  10    -0.109280280533E+03   -0.75723E-06   -0.71838E-08   100   0.100E-03
  20 F= -.10975234E+03 E0= -.10975234E+03  d E =-.279362E-12  mag=    -0.0000
       N       E                     dE             d eps       ncg     rms          rms(c)
DAV:   1    -0.109280699197E+03   -0.41942E-03   -0.34143E-01   208   0.216E+00    0.217E-01
RMM:   2    -0.109280255205E+03    0.44399E-03   -0.22611E-03   156   0.183E-01    0.121E-01
RMM:   3    -0.109280250106E+03    0.50989E-05   -0.13064E-03   158   0.118E-01    0.308E-02
RMM:   4    -0.109280234318E+03    0.15788E-04   -0.13178E-04   158   0.442E-02    0.964E-03
RMM:   5    -0.109280237549E+03   -0.32311E-05   -0.29181E-05   164   0.202E-02    0.410E-03
RMM:   6    -0.109280238975E+03   -0.14256E-05   -0.47105E-06   144   0.834E-03    0.187E-03
RMM:   7    -0.109280240555E+03   -0.15805E-05   -0.14919E-06   118   0.487E-03    0.884E-04
RMM:   8    -0.109280241941E+03   -0.13861E-05   -0.47863E-07   114   0.334E-03    0.518E-04
RMM:   9    -0.109280243557E+03   -0.16152E-05   -0.25713E-07   114   0.227E-03    0.336E-04
RMM:  10    -0.109280244876E+03   -0.13194E-05   -0.12208E-07   110   0.133E-03    0.191E-04
RMM:  11    -0.109280246726E+03   -0.18496E-05   -0.75401E-08    90   0.925E-04    0.117E-04
RMM:  12    -0.109280248156E+03   -0.14303E-05   -0.57102E-08    84   0.857E-04    0.103E-04
RMM:  13    -0.109280249148E+03   -0.99242E-06   -0.42995E-08    84   0.812E-04
  21 F= -.10975236E+03 E0= -.10975236E+03  d E =-.647200E-12  mag=    -0.0000
       N       E                     dE             d eps       ncg     rms          rms(c)
DAV:   1    -0.109279903552E+03    0.34460E-03   -0.18719E-01   208   0.162E+00    0.218E-01
RMM:   2    -0.109279125366E+03    0.77819E-03   -0.27356E-03   156   0.199E-01    0.117E-01
RMM:   3    -0.109279084405E+03    0.40961E-04   -0.18297E-03   158   0.137E-01    0.373E-02
RMM:   4    -0.109279056361E+03    0.28045E-04   -0.17511E-04   156   0.529E-02    0.135E-02
RMM:   5    -0.109279063259E+03   -0.68984E-05   -0.58348E-05   168   0.256E-02    0.495E-03
RMM:   6    -0.109279065293E+03   -0.20332E-05   -0.73871E-06   150   0.103E-02    0.291E-03
RMM:   7    -0.109279066988E+03   -0.16954E-05   -0.28815E-06   136   0.574E-03    0.124E-03
RMM:   8    -0.109279068089E+03   -0.11006E-05   -0.63114E-07   114   0.296E-03    0.568E-04
RMM:   9    -0.109279069692E+03   -0.16032E-05   -0.25432E-07   114   0.185E-03    0.290E-04
RMM:  10    -0.109279070521E+03   -0.82870E-06   -0.10488E-07   108   0.122E-03
  22 F= -.10975102E+03 E0= -.10975102E+03  d E =-.459962E-12  mag=    -0.0000
       N       E                     dE             d eps       ncg     rms          rms(c)
DAV:   1    -0.109279821311E+03   -0.75162E-03   -0.36667E-01   208   0.227E+00    0.286E-01
RMM:   2    -0.109278620348E+03    0.12010E-02   -0.45855E-03   156   0.264E-01    0.155E-01
RMM:   3    -0.109278547349E+03    0.72998E-04   -0.28870E-03   156   0.175E-01    0.465E-02
RMM:   4    -0.109278507225E+03    0.40125E-04   -0.26827E-04   156   0.679E-02    0.172E-02
RMM:   5    -0.109278516993E+03   -0.97684E-05   -0.89530E-05   166   0.329E-02    0.640E-03
RMM:   6    -0.109278518705E+03   -0.17115E-05   -0.13173E-05   158   0.133E-02    0.357E-03
RMM:   7    -0.109278519808E+03   -0.11039E-05   -0.51969E-06   146   0.818E-03    0.175E-03
RMM:   8    -0.109278521004E+03   -0.11958E-05   -0.95205E-07   114   0.433E-03    0.796E-04
RMM:   9    -0.109278522549E+03   -0.15444E-05   -0.47440E-07   114   0.316E-03    0.490E-04
RMM:  10    -0.109278523373E+03   -0.82482E-06   -0.20115E-07   114   0.219E-03
  23 F= -.10975075E+03 E0= -.10975075E+03  d E =-.962503E-12  mag=     0.0000
       N       E                     dE             d eps       ncg     rms          rms(c)
DAV:   1    -0.109281903899E+03   -0.33814E-02   -0.17657E-01   208   0.160E+00    0.186E-01
RMM:   2    -0.109281438157E+03    0.46574E-03   -0.18538E-03   156   0.169E-01    0.102E-01
RMM:   3    -0.109281420560E+03    0.17598E-04   -0.11640E-03   156   0.112E-01    0.289E-02
RMM:   4    -0.109281407810E+03    0.12750E-04   -0.12603E-04   158   0.440E-02    0.107E-02
RMM:   5    -0.109281411792E+03   -0.39826E-05   -0.27415E-05   161   0.204E-02    0.384E-03
RMM:   6    -0.109281413827E+03   -0.20344E-05   -0.72419E-06   150   0.913E-03    0.212E-03
RMM:   7    -0.109281415084E+03   -0.12574E-05   -0.14677E-06   118   0.469E-03    0.106E-03
RMM:   8    -0.109281416294E+03   -0.12100E-05   -0.38802E-07   114   0.292E-03    0.435E-04
RMM:   9    -0.109281417404E+03   -0.11105E-05   -0.19498E-07   114   0.197E-03    0.319E-04
RMM:  10    -0.109281418376E+03   -0.97113E-06   -0.93111E-08   106   0.126E-03
  24 F= -.10975347E+03 E0= -.10975347E+03  d E =-.410987E-12  mag=    -0.0000
       N       E                     dE             d eps       ncg     rms          rms(c)
DAV:   1    -0.109281137993E+03    0.27941E-03   -0.31953E-01   208   0.216E+00    0.182E-01
RMM:   2    -0.109281055937E+03    0.82056E-04   -0.14836E-03   156   0.168E-01    0.106E-01
RMM:   3    -0.109281079981E+03   -0.24045E-04   -0.58393E-04   156   0.918E-02    0.119E-02
RMM:   4    -0.109281084853E+03   -0.48714E-05   -0.11011E-04   166   0.383E-02    0.558E-03
RMM:   5    -0.109281085931E+03   -0.10778E-05   -0.21411E-05   160   0.166E-02    0.267E-03
RMM:   6    -0.109281087892E+03   -0.19611E-05   -0.28400E-06   134   0.654E-03    0.129E-03
RMM:   7    -0.109281089995E+03   -0.21029E-05   -0.81927E-07   114   0.365E-03    0.642E-04
RMM:   8    -0.109281092821E+03   -0.28265E-05   -0.40326E-07   114   0.255E-03    0.382E-04
RMM:   9    -0.109281095347E+03   -0.25256E-05   -0.29964E-07   112   0.201E-03    0.253E-04
RMM:  10    -0.109281097864E+03   -0.25169E-05   -0.23101E-07   104   0.140E-03    0.194E-04
RMM:  11    -0.109281100526E+03   -0.26620E-05   -0.19129E-07    96   0.112E-03    0.112E-04
RMM:  12    -0.109281101938E+03   -0.14119E-05   -0.12000E-07    90   0.912E-04    0.780E-05
RMM:  13    -0.109281102924E+03   -0.98613E-06   -0.45973E-08    78   0.768E-04
  25 F= -.10975322E+03 E0= -.10975322E+03  d E =-.452582E-12  mag=    -0.0000
       N       E                     dE             d eps       ncg     rms          rms(c)
DAV:   1    -0.109280401520E+03    0.70042E-03   -0.16503E-01   208   0.154E+00    0.140E-01
RMM:   2    -0.109280297889E+03    0.10363E-03   -0.11066E-03   156   0.139E-01    0.808E-02
RMM:   3    -0.109280310990E+03   -0.13102E-04   -0.49340E-04   156   0.787E-02    0.161E-02
RMM:   4    -0.109280307594E+03    0.33967E-05   -0.64418E-05   158   0.313E-02    0.579E-03
RMM:   5    -0.109280308986E+03   -0.13917E-05   -0.16857E-05   162   0.150E-02    0.255E-03
RMM:   6    -0.109280309881E+03   -0.89591E-06   -0.19522E-06   122   0.548E-03
  26 F= -.10975242E+03 E0= -.10975242E+03  d E =-.115739E-11  mag=    -0.0000
       N       E                     dE             d eps       ncg     rms          rms(c)
DAV:   1    -0.109280708364E+03   -0.39938E-03   -0.33908E-01   208   0.216E+00    0.215E-01
RMM:   2    -0.109280271774E+03    0.43659E-03   -0.22216E-03   156   0.180E-01    0.121E-01
RMM:   3    -0.109280266789E+03    0.49846E-05   -0.12944E-03   158   0.118E-01    0.305E-02
RMM:   4    -0.109280252371E+03    0.14418E-04   -0.13018E-04   158   0.442E-02    0.956E-03
RMM:   5    -0.109280256913E+03   -0.45423E-05   -0.29296E-05   162   0.204E-02    0.408E-03
RMM:   6    -0.109280259594E+03   -0.26801E-05   -0.56206E-06   144   0.865E-03    0.200E-03
RMM:   7    -0.109280262210E+03   -0.26167E-05   -0.17143E-06   120   0.523E-03    0.942E-04
RMM:   8    -0.109280263428E+03   -0.12176E-05   -0.47153E-07   114   0.314E-03    0.596E-04
RMM:   9    -0.109280265636E+03   -0.22085E-05   -0.30063E-07   112   0.202E-03    0.431E-04
RMM:  10    -0.109280266846E+03   -0.12100E-05   -0.12381E-07   102   0.126E-03    0.228E-04
RMM:  11    -0.109280268172E+03   -0.13260E-05   -0.97332E-08    96   0.987E-04    0.141E-04
RMM:  12    -0.109280269627E+03   -0.14545E-05   -0.10233E-07    92   0.916E-04    0.120E-04
RMM:  13    -0.109280270429E+03   -0.80179E-06   -0.46744E-08    80   0.731E-04
  27 F= -.10975233E+03 E0= -.10975233E+03  d E =-.263126E-12  mag=    -0.0000
       N       E                     dE             d eps       ncg     rms          rms(c)
DAV:   1    -0.109279038358E+03    0.12313E-02   -0.16314E-01   208   0.151E+00    0.126E-01
RMM:   2    -0.109278980390E+03    0.57968E-04   -0.72890E-04   156   0.104E-01    0.727E-02
RMM:   3    -0.109278993782E+03   -0.13392E-04   -0.31550E-04   156   0.616E-02    0.120E-02
RMM:   4    -0.109278992994E+03    0.78800E-06   -0.40285E-05   156   0.239E-02    0.473E-03
RMM:   5    -0.109278993338E+03   -0.34382E-06   -0.84149E-06   152   0.110E-02
  28 F= -.10975094E+03 E0= -.10975094E+03  d E =-.211103E-12  mag=    -0.0000
       N       E                     dE             d eps       ncg     rms          rms(c)
DAV:   1    -0.109279909535E+03   -0.91654E-03   -0.36698E-01   208   0.227E+00    0.287E-01
RMM:   2    -0.109278689658E+03    0.12199E-02   -0.45439E-03   156   0.263E-01    0.156E-01
RMM:   3    -0.109278612955E+03    0.76703E-04   -0.29013E-03   156   0.175E-01    0.465E-02
RMM:   4    -0.109278572561E+03    0.40395E-04   -0.26771E-04   156   0.679E-02    0.172E-02
RMM:   5    -0.109278582361E+03   -0.98004E-05   -0.89476E-05   166   0.328E-02    0.640E-03
RMM:   6    -0.109278583975E+03   -0.16136E-05   -0.12816E-05   158   0.131E-02    0.354E-03
RMM:   7    -0.109278585068E+03   -0.10936E-05   -0.50713E-06   146   0.788E-03    0.175E-03
RMM:   8    -0.109278586101E+03   -0.10330E-05   -0.88314E-07   114   0.387E-03    0.766E-04
RMM:   9    -0.109278587443E+03   -0.13419E-05   -0.39993E-07   114   0.259E-03    0.458E-04
RMM:  10    -0.109278588042E+03   -0.59888E-06   -0.14726E-07   112   0.169E-03
  29 F= -.10975082E+03 E0= -.10975082E+03  d E =-.164118E-11  mag=    -0.0000
       N       E                     dE             d eps       ncg     rms          rms(c)
DAV:   1    -0.109281885027E+03   -0.32976E-02   -0.17714E-01   208   0.160E+00    0.188E-01
RMM:   2    -0.109281399949E+03    0.48508E-03   -0.18978E-03   156   0.171E-01    0.103E-01
RMM:   3    -0.109281380309E+03    0.19640E-04   -0.11993E-03   156   0.114E-01    0.295E-02
RMM:   4    -0.109281366718E+03    0.13591E-04   -0.12924E-04   158   0.446E-02    0.109E-02
RMM:   5    -0.109281370800E+03   -0.40815E-05   -0.28364E-05   162   0.207E-02    0.392E-03
RMM:   6    -0.109281372862E+03   -0.20625E-05   -0.72647E-06   150   0.917E-03    0.217E-03
RMM:   7    -0.109281374163E+03   -0.13009E-05   -0.15848E-06   120   0.474E-03    0.107E-03
RMM:   8    -0.109281375478E+03   -0.13152E-05   -0.40850E-07   114   0.285E-03    0.426E-04
RMM:   9    -0.109281376579E+03   -0.11004E-05   -0.19229E-07   112   0.191E-03    0.302E-04
RMM:  10    -0.109281377549E+03   -0.97062E-06   -0.94708E-08   106   0.124E-03
  30 F= -.10975343E+03 E0= -.10975343E+03  d E =-.398890E-12  mag=     0.0000
       N       E                     dE             d eps       ncg     rms          rms(c)
DAV:   1    -0.109281144285E+03    0.23229E-03   -0.31990E-01   208   0.216E+00    0.183E-01
RMM:   2    -0.109281052739E+03    0.91546E-04   -0.15283E-03   156   0.170E-01    0.107E-01
RMM:   3    -0.109281077322E+03   -0.24582E-04   -0.61073E-04   156   0.936E-02    0.128E-02
RMM:   4    -0.109281081390E+03   -0.40687E-05   -0.11126E-04   164   0.390E-02    0.570E-03
RMM:   5    -0.109281082773E+03   -0.13830E-05   -0.23363E-05   162   0.172E-02    0.283E-03
RMM:   6    -0.109281084708E+03   -0.19348E-05   -0.31065E-06   136   0.670E-03    0.127E-03
RMM:   7    -0.109281086676E+03   -0.19678E-05   -0.70875E-07   114   0.356E-03    0.681E-04
RMM:   8    -0.109281089547E+03   -0.28706E-05   -0.37486E-07   114   0.252E-03    0.398E-04
RMM:   9    -0.109281091897E+03   -0.23507E-05   -0.27847E-07   112   0.198E-03    0.266E-04
RMM:  10    -0.109281094428E+03   -0.25306E-05   -0.21706E-07   104   0.138E-03    0.205E-04
RMM:  11    -0.109281097127E+03   -0.26987E-05   -0.18670E-07    96   0.110E-03    0.115E-04
RMM:  12    -0.109281098579E+03   -0.14528E-05   -0.11969E-07    90   0.906E-04    0.850E-05
RMM:  13    -0.109281099607E+03   -0.10274E-05   -0.48471E-08    79   0.767E-04    0.553E-05
RMM:  14    -0.109281100703E+03   -0.10957E-05   -0.60626E-08    83   0.805E-04    0.394E-05
RMM:  15    -0.109281101048E+03   -0.34587E-06   -0.15618E-08    76   0.697E-04
  31 F= -.10975322E+03 E0= -.10975322E+03  d E =-.287238E-12  mag=    -0.0000
       N       E                     dE             d eps       ncg     rms          rms(c)
DAV:   1    -0.109280709873E+03    0.39083E-03   -0.16267E-01   208   0.174E+00    0.130E-01
RMM:   2    -0.109280666621E+03    0.43252E-04   -0.98516E-04   156   0.141E-01    0.772E-02
RMM:   3    -0.109280685573E+03   -0.18952E-04   -0.49525E-04   156   0.839E-02    0.118E-02
RMM:   4    -0.109280687903E+03   -0.23300E-05   -0.89617E-05   168   0.362E-02    0.914E-03
RMM:   5    -0.109280687058E+03    0.84486E-06   -0.26810E-05   156   0.180E-02    0.256E-03
RMM:   6    -0.109280687905E+03   -0.84634E-06   -0.36350E-06   134   0.815E-03
  32 F= -.10975291E+03 E0= -.10975291E+03  d E =-.791031E-12  mag=     0.0000
       N       E                     dE             d eps       ncg     rms          rms(c)
DAV:   1    -0.109280913469E+03   -0.22641E-03   -0.33011E-01   208   0.192E+00    0.189E-01
RMM:   2    -0.109280754324E+03    0.15915E-03   -0.18874E-03   156   0.156E-01    0.110E-01
RMM:   3    -0.109280772259E+03   -0.17935E-04   -0.13069E-03   156   0.113E-01    0.226E-02
RMM:   4    -0.109280767613E+03    0.46459E-05   -0.14746E-04   158   0.464E-02    0.165E-02
RMM:   5    -0.109280770339E+03   -0.27256E-05   -0.13691E-04   156   0.326E-02    0.993E-03
RMM:   6    -0.109280766699E+03    0.36398E-05   -0.14759E-05   148   0.140E-02    0.373E-03
RMM:   7    -0.109280770806E+03   -0.41072E-05   -0.14798E-05   148   0.109E-02    0.369E-03
RMM:   8    -0.109280772208E+03   -0.14013E-05   -0.19777E-06   128   0.518E-03    0.147E-03
RMM:   9    -0.109280774869E+03   -0.26617E-05   -0.93020E-07   116   0.307E-03    0.445E-04
RMM:  10    -0.109280777007E+03   -0.21382E-05   -0.46980E-07   114   0.248E-03    0.326E-04
RMM:  11    -0.109280778296E+03   -0.12888E-05   -0.17933E-07   106   0.154E-03    0.494E-04
RMM:  12    -0.109280780651E+03   -0.23549E-05   -0.13422E-07    98   0.103E-03    0.136E-04
RMM:  13    -0.109280781510E+03   -0.85928E-06   -0.85981E-08    94   0.937E-04
  33 F= -.10975273E+03 E0= -.10975273E+03  d E =-.359696E-12  mag=     0.0000
       N       E                     dE             d eps       ncg     rms          rms(c)
DAV:   1    -0.109281061771E+03   -0.28112E-03   -0.16150E-01   208   0.136E+00    0.115E-01
RMM:   2    -0.109281060657E+03    0.11136E-05   -0.64285E-04   154   0.981E-02    0.690E-02
RMM:   3    -0.109281082815E+03   -0.22158E-04   -0.28019E-04   158   0.570E-02    0.672E-03
RMM:   4    -0.109281085365E+03   -0.25501E-05   -0.35461E-05   154   0.230E-02    0.501E-03
RMM:   5    -0.109281086931E+03   -0.15660E-05   -0.15234E-05   148   0.126E-02    0.257E-03
RMM:   6    -0.109281087837E+03   -0.90551E-06   -0.22309E-06   122   0.583E-03
  34 F= -.10975316E+03 E0= -.10975316E+03  d E =-.429160E-12  mag=    -0.0000
       N       E                     dE             d eps       ncg     rms          rms(c)
DAV:   1    -0.109280986800E+03    0.10013E-03   -0.32477E-01   208   0.196E+00    0.168E-01
RMM:   2    -0.109280969138E+03    0.17662E-04   -0.13792E-03   156   0.140E-01    0.100E-01
RMM:   3    -0.109281011574E+03   -0.42436E-04   -0.62115E-04   156   0.832E-02    0.124E-02
RMM:   4    -0.109281014290E+03   -0.27164E-05   -0.83775E-05   154   0.344E-02    0.844E-03
RMM:   5    -0.109281015503E+03   -0.12132E-05   -0.46091E-05   152   0.215E-02    0.587E-03
RMM:   6    -0.109281016130E+03   -0.62648E-06   -0.73420E-06   142   0.998E-03
  35 F= -.10975311E+03 E0= -.10975311E+03  d E =-.824265E-12  mag=    -0.0000
       N       E                     dE             d eps       ncg     rms          rms(c)
DAV:   1    -0.109278641958E+03    0.23735E-02   -0.17041E-01   208   0.142E+00    0.154E-01
RMM:   2    -0.109278424705E+03    0.21725E-03   -0.11410E-03   156   0.124E-01    0.879E-02
RMM:   3    -0.109278444810E+03   -0.20105E-04   -0.10606E-03   156   0.945E-02    0.224E-02
RMM:   4    -0.109278435326E+03    0.94845E-05   -0.94897E-05   154   0.387E-02    0.175E-02
RMM:   5    -0.109278435639E+03   -0.31361E-06   -0.15506E-04   156   0.335E-02    0.130E-02
RMM:   6    -0.109278428934E+03    0.67053E-05   -0.18272E-05   148   0.145E-02    0.417E-03
RMM:   7    -0.109278429850E+03   -0.91660E-06   -0.88069E-06   144   0.848E-03
  36 F= -.10975057E+03 E0= -.10975057E+03  d E =-.818934E-12  mag=    -0.0000
       N       E                     dE             d eps       ncg     rms          rms(c)
DAV:   1    -0.109280327440E+03   -0.18985E-02   -0.36787E-01   208   0.206E+00    0.295E-01
RMM:   2    -0.109278990462E+03    0.13370E-02   -0.51040E-03   156   0.253E-01    0.163E-01
RMM:   3    -0.109278932064E+03    0.58398E-04   -0.52599E-03   156   0.205E-01    0.525E-02
RMM:   4    -0.109278866594E+03    0.65470E-04   -0.42041E-04   158   0.808E-02    0.368E-02
RMM:   5    -0.109278880362E+03   -0.13768E-04   -0.63734E-04   156   0.671E-02    0.267E-02
RMM:   6    -0.109278846955E+03    0.33407E-04   -0.93247E-05   154   0.313E-02    0.600E-03
RMM:   7    -0.109278851644E+03   -0.46884E-05   -0.47576E-05   150   0.198E-02    0.577E-03
RMM:   8    -0.109278853321E+03   -0.16776E-05   -0.38496E-06   138   0.955E-03    0.384E-03
RMM:   9    -0.109278854638E+03   -0.13163E-05   -0.24018E-06   130   0.524E-03    0.848E-04
RMM:  10    -0.109278856979E+03   -0.23416E-05   -0.58574E-07   112   0.277E-03    0.293E-04
RMM:  11    -0.109278859170E+03   -0.21911E-05   -0.45917E-07   110   0.213E-03    0.705E-04
RMM:  12    -0.109278860782E+03   -0.16118E-05   -0.13424E-07   104   0.129E-03    0.553E-04
RMM:  13    -0.109278862741E+03   -0.19591E-05   -0.24087E-07   106   0.133E-03    0.257E-04
RMM:  14    -0.109278863756E+03   -0.10148E-05   -0.75954E-08    92   0.868E-04    0.307E-04
RMM:  15    -0.109278864327E+03   -0.57055E-06   -0.23074E-08    78   0.622E-04
  37 F= -.10975090E+03 E0= -.10975090E+03  d E =-.529423E-12  mag=    -0.0000
       N       E                     dE             d eps       ncg     rms          rms(c)
DAV:   1    -0.109281206551E+03   -0.23428E-02   -0.17604E-01   208   0.165E+00    0.178E-01
RMM:   2    -0.109280801870E+03    0.40468E-03   -0.23808E-03   156   0.183E-01    0.994E-02
RMM:   3    -0.109280819941E+03   -0.18071E-04   -0.22806E-03   156   0.135E-01    0.333E-02
RMM:   4    -0.109280806048E+03    0.13893E-04   -0.21689E-04   160   0.590E-02    0.294E-02
RMM:   5    -0.109280789541E+03    0.16508E-04   -0.26318E-04   156   0.438E-02    0.136E-02
RMM:   6    -0.109280783682E+03    0.58585E-05   -0.18368E-05   150   0.171E-02    0.646E-03
RMM:   7    -0.109280784172E+03   -0.48948E-06   -0.15018E-05   146   0.107E-02    0.208E-03
RMM:   8    -0.109280785291E+03   -0.11188E-05   -0.13214E-06   118   0.484E-03    0.108E-03
RMM:   9    -0.109280786627E+03   -0.13361E-05   -0.45376E-07   110   0.255E-03    0.145E-03
RMM:  10    -0.109280787659E+03   -0.10325E-05   -0.18413E-07   104   0.161E-03    0.793E-04
RMM:  11    -0.109280789157E+03   -0.14975E-05   -0.93779E-07   112   0.272E-03    0.102E-03
RMM:  12    -0.109280789481E+03   -0.32455E-06   -0.10518E-07   101   0.132E-03
  38 F= -.10975300E+03 E0= -.10975300E+03  d E =-.855553E-12  mag=     0.0000
       N       E                     dE             d eps       ncg     rms          rms(c)
DAV:   1    -0.109280792018E+03   -0.28609E-05   -0.33286E-01   208   0.229E+00    0.193E-01
RMM:   2    -0.109280599438E+03    0.19258E-03   -0.18893E-03   156   0.171E-01    0.112E-01
RMM:   3    -0.109280606936E+03   -0.74973E-05   -0.13598E-03   156   0.115E-01    0.215E-02
RMM:   4    -0.109280604448E+03    0.24872E-05   -0.14882E-04   164   0.478E-02    0.170E-02
RMM:   5    -0.109280607501E+03   -0.30526E-05   -0.16091E-04   156   0.349E-02    0.129E-02
RMM:   6    -0.109280600234E+03    0.72675E-05   -0.22576E-05   148   0.154E-02    0.387E-03
RMM:   7    -0.109280602826E+03   -0.25928E-05   -0.12307E-05   146   0.986E-03    0.240E-03
RMM:   8    -0.109280604827E+03   -0.20004E-05   -0.13538E-06   118   0.452E-03    0.888E-04
RMM:   9    -0.109280606703E+03   -0.18757E-05   -0.36573E-07   112   0.209E-03    0.865E-04
RMM:  10    -0.109280609033E+03   -0.23308E-05   -0.35060E-07   112   0.173E-03    0.184E-04
RMM:  11    -0.109280609967E+03   -0.93332E-06   -0.15066E-07   102   0.131E-03
  39 F= -.10975257E+03 E0= -.10975257E+03  d E =-.489098E-12  mag=     0.0000
       N       E                     dE             d eps       ncg     rms          rms(c)
DAV:   1    -0.109279426756E+03    0.11823E-02   -0.18781E-01   208   0.169E+00    0.206E-01
RMM:   2    -0.109278832201E+03    0.59455E-03   -0.23155E-03   156   0.185E-01    0.115E-01
RMM:   3    -0.109278796200E+03    0.36001E-04   -0.26196E-03   156   0.145E-01    0.346E-02
RMM:   4    -0.109278776882E+03    0.19318E-04   -0.22546E-04   162   0.607E-02    0.295E-02
RMM:   5    -0.109278768212E+03    0.86703E-05   -0.35887E-04   156   0.501E-02    0.179E-02
RMM:   6    -0.109278755120E+03    0.13092E-04   -0.29993E-05   150   0.198E-02    0.758E-03
RMM:   7    -0.109278755453E+03   -0.33287E-06   -0.27956E-05   148   0.141E-02    0.314E-03
RMM:   8    -0.109278755798E+03   -0.34462E-06   -0.21554E-06   132   0.627E-03
  40 F= -.10975088E+03 E0= -.10975088E+03  d E =-.122339E-11  mag=    -0.0000
       N       E                     dE             d eps       ncg     rms          rms(c)
DAV:   1    -0.109280132131E+03   -0.13767E-02   -0.37026E-01   208   0.234E+00    0.288E-01
RMM:   2    -0.109278892960E+03    0.12392E-02   -0.43238E-03   156   0.255E-01    0.162E-01
RMM:   3    -0.109278827040E+03    0.65920E-04   -0.54344E-03   156   0.204E-01    0.511E-02
RMM:   4    -0.109278780858E+03    0.46181E-04   -0.45254E-04   158   0.869E-02    0.424E-02
RMM:   5    -0.109278764368E+03    0.16491E-04   -0.72802E-04   156   0.718E-02    0.256E-02
RMM:   6    -0.109278736197E+03    0.28171E-04   -0.61461E-05   154   0.293E-02    0.107E-02
RMM:   7    -0.109278737305E+03   -0.11080E-05   -0.51112E-05   152   0.200E-02    0.358E-03
RMM:   8    -0.109278739560E+03   -0.22547E-05   -0.58897E-06   144   0.119E-02    0.315E-03
RMM:   9    -0.109278741367E+03   -0.18072E-05   -0.11417E-06   118   0.447E-03    0.152E-03
RMM:  10    -0.109278744702E+03   -0.33353E-05   -0.65769E-07   112   0.258E-03    0.583E-04
RMM:  11    -0.109278746277E+03   -0.15750E-05   -0.45749E-07   110   0.212E-03    0.452E-04
RMM:  12    -0.109278748543E+03   -0.22660E-05   -0.24461E-07   106   0.167E-03    0.725E-04
RMM:  13    -0.109278750531E+03   -0.19880E-05   -0.15865E-07   100   0.113E-03    0.280E-04
RMM:  14    -0.109278751382E+03   -0.85059E-06   -0.19311E-07   104   0.125E-03
  41 F= -.10975080E+03 E0= -.10975080E+03  d E =-.448764E-12  mag=    -0.0000
       N       E                     dE             d eps       ncg     rms          rms(c)
DAV:   1    -0.109280884641E+03   -0.21341E-02   -0.16676E-01   208   0.163E+00    0.136E-01
RMM:   2    -0.109280755527E+03    0.12911E-03   -0.92586E-04   156   0.119E-01    0.795E-02
RMM:   3    -0.109280768028E+03   -0.12501E-04   -0.72349E-04   156   0.795E-02    0.170E-02
RMM:   4    -0.109280761669E+03    0.63589E-05   -0.63731E-05   152   0.318E-02    0.121E-02
RMM:   5    -0.109280762282E+03   -0.61335E-06   -0.77678E-05   150   0.243E-02    0.914E-03
RMM:   6    -0.109280759930E+03    0.23522E-05   -0.10833E-05   146   0.106E-02    0.265E-03
RMM:   7    -0.109280761899E+03   -0.19691E-05   -0.58117E-06   142   0.669E-03    0.139E-03
RMM:   8    -0.109280763435E+03   -0.15358E-05   -0.65552E-07   114   0.320E-03    0.980E-04
RMM:   9    -0.109280765166E+03   -0.17308E-05   -0.24367E-07   105   0.176E-03    0.872E-04
RMM:  10    -0.109280766789E+03   -0.16234E-05   -0.18683E-07   106   0.138E-03    0.342E-04
RMM:  11    -0.109280768616E+03   -0.18274E-05   -0.39765E-07   112   0.182E-03    0.718E-04
RMM:  12    -0.109280769874E+03   -0.12575E-05   -0.80074E-08    94   0.997E-04    0.624E-04
RMM:  13    -0.109280770681E+03   -0.80717E-06   -0.62313E-08    94   0.848E-04
  42 F= -.10975284E+03 E0= -.10975284E+03  d E =-.363430E-12  mag=     0.0000
       N       E                     dE             d eps       ncg     rms          rms(c)
DAV:   1    -0.109281066695E+03   -0.29682E-03   -0.32964E-01   208   0.228E+00    0.180E-01
RMM:   2    -0.109280968358E+03    0.98338E-04   -0.16181E-03   156   0.156E-01    0.107E-01
RMM:   3    -0.109280997721E+03   -0.29363E-04   -0.90252E-04   156   0.975E-02    0.170E-02
RMM:   4    -0.109280996547E+03    0.11740E-05   -0.10281E-04   158   0.396E-02    0.127E-02
RMM:   5    -0.109280999445E+03   -0.28984E-05   -0.10375E-04   154   0.284E-02    0.104E-02
RMM:   6    -0.109280996594E+03    0.28514E-05   -0.14252E-05   146   0.124E-02    0.337E-03
RMM:   7    -0.109280999902E+03   -0.33078E-05   -0.68204E-06   138   0.760E-03    0.135E-03
RMM:   8    -0.109281003934E+03   -0.40321E-05   -0.11999E-06   116   0.397E-03    0.935E-04
RMM:   9    -0.109281007652E+03   -0.37187E-05   -0.66559E-07   112   0.270E-03    0.161E-03
RMM:  10    -0.109281010744E+03   -0.30910E-05   -0.35062E-07   110   0.195E-03    0.788E-04
RMM:  11    -0.109281013236E+03   -0.24923E-05   -0.79557E-07   114   0.251E-03    0.774E-04
RMM:  12    -0.109281014684E+03   -0.14482E-05   -0.12950E-07   104   0.128E-03    0.720E-04
RMM:  13    -0.109281016855E+03   -0.21713E-05   -0.11179E-07    96   0.947E-04    0.279E-04
RMM:  14    -0.109281017465E+03   -0.60979E-06   -0.65585E-08    96   0.876E-04
  43 F= -.10975312E+03 E0= -.10975312E+03  d E =-.886247E-12  mag=    -0.0000
       N       E                     dE             d eps       ncg     rms          rms(c)
DAV:   1    -0.109280826507E+03    0.19035E-03   -0.16765E-01   208   0.160E+00    0.133E-01
RMM:   2    -0.109280757539E+03    0.68967E-04   -0.85879E-04   156   0.122E-01    0.785E-02
RMM:   3    -0.109280761957E+03   -0.44177E-05   -0.41344E-04   156   0.697E-02    0.827E-03
RMM:   4    -0.109280764006E+03   -0.20485E-05   -0.46709E-05   154   0.279E-02    0.576E-03
RMM:   5    -0.109280763283E+03    0.72304E-06   -0.13385E-05   148   0.136E-02    0.182E-03
RMM:   6    -0.109280764689E+03   -0.14059E-05   -0.31597E-06   134   0.634E-03    0.114E-03
RMM:   7    -0.109280766302E+03   -0.16133E-05   -0.80967E-07   116   0.310E-03    0.489E-04
RMM:   8    -0.109280767534E+03   -0.12320E-05   -0.20799E-07   106   0.170E-03    0.271E-04
RMM:   9    -0.109280769502E+03   -0.19683E-05   -0.17657E-07   106   0.134E-03    0.162E-04
RMM:  10    -0.109280770290E+03   -0.78756E-06   -0.69900E-08    98   0.953E-04
  44 F= -.10975298E+03 E0= -.10975298E+03  d E =-.564637E-12  mag=    -0.0000
       N       E                     dE             d eps       ncg     rms          rms(c)
DAV:   1    -0.109280830533E+03   -0.61031E-04   -0.33251E-01   208   0.229E+00    0.192E-01
RMM:   2    -0.109280650849E+03    0.17968E-03   -0.18901E-03   156   0.171E-01    0.111E-01
RMM:   3    -0.109280657746E+03   -0.68971E-05   -0.13232E-03   156   0.114E-01    0.211E-02
RMM:   4    -0.109280656068E+03    0.16776E-05   -0.14605E-04   164   0.474E-02    0.167E-02
RMM:   5    -0.109280659476E+03   -0.34074E-05   -0.15421E-04   156   0.342E-02    0.126E-02
RMM:   6    -0.109280652420E+03    0.70555E-05   -0.21905E-05   148   0.152E-02    0.374E-03
RMM:   7    -0.109280655007E+03   -0.25865E-05   -0.11798E-05   146   0.970E-03    0.238E-03
RMM:   8    -0.109280657013E+03   -0.20063E-05   -0.13380E-06   118   0.452E-03    0.860E-04
RMM:   9    -0.109280658788E+03   -0.17754E-05   -0.37294E-07   112   0.228E-03    0.817E-04
RMM:  10    -0.109280660672E+03   -0.18838E-05   -0.25770E-07   110   0.182E-03    0.335E-04
RMM:  11    -0.109280662048E+03   -0.13763E-05   -0.22776E-07   106   0.156E-03    0.325E-04
RMM:  12    -0.109280662813E+03   -0.76466E-06   -0.51983E-08    92   0.920E-04
  45 F= -.10975262E+03 E0= -.10975262E+03  d E =-.433786E-12  mag=     0.0000
       N       E                     dE             d eps       ncg     rms          rms(c)
DAV:   1    -0.109279730536E+03    0.93151E-03   -0.16312E-01   208   0.159E+00    0.122E-01
RMM:   2    -0.109279695716E+03    0.34820E-04   -0.80785E-04   156   0.113E-01    0.723E-02
RMM:   3    -0.109279707593E+03   -0.11877E-04   -0.39160E-04   156   0.646E-02    0.106E-02
RMM:   4    -0.109279710578E+03   -0.29849E-05   -0.57660E-05   160   0.265E-02    0.724E-03
RMM:   5    -0.109279713287E+03   -0.27090E-05   -0.26780E-05   148   0.158E-02    0.460E-03
RMM:   6    -0.109279713021E+03    0.26541E-06   -0.48186E-06   138   0.736E-03
  46 F= -.10975177E+03 E0= -.10975177E+03  d E =-.470005E-12  mag=    -0.0000
       N       E                     dE             d eps       ncg     rms          rms(c)
DAV:   1    -0.109280343803E+03   -0.63052E-03   -0.35648E-01   208   0.236E+00    0.249E-01
RMM:   2    -0.109279605256E+03    0.73855E-03   -0.32314E-03   156   0.226E-01    0.142E-01
RMM:   3    -0.109279574763E+03    0.30493E-04   -0.35844E-03   156   0.168E-01    0.410E-02
RMM:   4    -0.109279542997E+03    0.31765E-04   -0.29526E-04   158   0.698E-02    0.338E-02
RMM:   5    -0.109279535433E+03    0.75643E-05   -0.55826E-04   156   0.624E-02    0.241E-02
RMM:   6    -0.109279511881E+03    0.23552E-04   -0.54006E-05   150   0.252E-02    0.955E-03
RMM:   7    -0.109279513030E+03   -0.11497E-05   -0.44366E-05   148   0.177E-02    0.329E-03
RMM:   8    -0.109279513835E+03   -0.80415E-06   -0.34715E-06   138   0.812E-03
  47 F= -.10975163E+03 E0= -.10975163E+03  d E =-.849293E-12  mag=    -0.0000
       N       E                     dE             d eps       ncg     rms          rms(c)
DAV:   1    -0.109280724342E+03   -0.12113E-02   -0.18810E-01   208   0.166E+00    0.212E-01
RMM:   2    -0.109280026496E+03    0.69785E-03   -0.22895E-03   156   0.184E-01    0.119E-01
RMM:   3    -0.109279995601E+03    0.30895E-04   -0.30012E-03   156   0.152E-01    0.383E-02
RMM:   4    -0.109279972221E+03    0.23381E-04   -0.26014E-04   160   0.656E-02    0.327E-02
RMM:   5    -0.109279952300E+03    0.19921E-04   -0.32823E-04   156   0.492E-02    0.141E-02
RMM:   6    -0.109279945281E+03    0.70195E-05   -0.23615E-05   152   0.224E-02    0.775E-03
RMM:   7    -0.109279944344E+03    0.93612E-06   -0.87093E-06   148   0.105E-02
  48 F= -.10975200E+03 E0= -.10975200E+03  d E =-.293502E-12  mag=    -0.0000
       N       E                     dE             d eps       ncg     rms          rms(c)
DAV:   1    -0.109280631801E+03   -0.68652E-03   -0.34794E-01   208   0.233E+00    0.231E-01
RMM:   2    -0.109280104161E+03    0.52764E-03   -0.27793E-03   156   0.202E-01    0.132E-01
RMM:   3    -0.109280083595E+03    0.20566E-04   -0.26765E-03   156   0.150E-01    0.354E-02
RMM:   4    -0.109280061652E+03    0.21943E-04   -0.23375E-04   160   0.619E-02    0.288E-02
RMM:   5    -0.109280058643E+03    0.30091E-05   -0.43597E-04   156   0.555E-02    0.224E-02
RMM:   6    -0.109280038196E+03    0.20447E-04   -0.50601E-05   152   0.246E-02    0.783E-03
RMM:   7    -0.109280039645E+03   -0.14490E-05   -0.26206E-05   148   0.147E-02    0.180E-03
RMM:   8    -0.109280041921E+03   -0.22761E-05   -0.40030E-06   140   0.980E-03    0.183E-03
RMM:   9    -0.109280043525E+03   -0.16044E-05   -0.11327E-06   118   0.444E-03    0.185E-03
RMM:  10    -0.109280046641E+03   -0.31161E-05   -0.34639E-07   112   0.207E-03    0.128E-03
RMM:  11    -0.109280047906E+03   -0.12647E-05   -0.70740E-07   110   0.235E-03    0.419E-04
RMM:  12    -0.109280049105E+03   -0.11986E-05   -0.19126E-07   104   0.154E-03    0.672E-04
RMM:  13    -0.109280051485E+03   -0.23807E-05   -0.11554E-07    96   0.994E-04    0.214E-04
RMM:  14    -0.109280052165E+03   -0.67924E-06   -0.10617E-07   102   0.100E-03
  49 F= -.10975217E+03 E0= -.10975217E+03  d E =-.874260E-12  mag=     0.0000
       N       E                     dE             d eps       ncg     rms          rms(c)
DAV:   1    -0.109280536714E+03   -0.48523E-03   -0.17167E-01   208   0.180E+00    0.154E-01
RMM:   2    -0.109280353374E+03    0.18334E-03   -0.14109E-03   156   0.166E-01    0.906E-02
RMM:   3    -0.109280348252E+03    0.51220E-05   -0.99968E-04   158   0.107E-01    0.210E-02
RMM:   4    -0.109280337194E+03    0.11058E-04   -0.95715E-05   158   0.426E-02    0.136E-02
RMM:   5    -0.109280335398E+03    0.17960E-05   -0.45147E-05   156   0.232E-02    0.360E-03
RMM:   6    -0.109280335864E+03   -0.46614E-06   -0.57447E-06   152   0.991E-03
  50 F= -.10975245E+03 E0= -.10975245E+03  d E =-.717967E-12  mag=    -0.0000
       N       E                     dE             d eps       ncg     rms          rms(c)
DAV:   1    -0.109280635311E+03   -0.29991E-03   -0.33945E-01   208   0.216E+00    0.216E-01
RMM:   2    -0.109280191072E+03    0.44424E-03   -0.23269E-03   156   0.183E-01    0.121E-01
RMM:   3    -0.109280186187E+03    0.48848E-05   -0.13399E-03   158   0.119E-01    0.310E-02
RMM:   4    -0.109280172137E+03    0.14050E-04   -0.13810E-04   158   0.451E-02    0.979E-03
RMM:   5    -0.109280177000E+03   -0.48625E-05   -0.31014E-05   162   0.208E-02    0.412E-03
RMM:   6    -0.109280179781E+03   -0.27809E-05   -0.60153E-06   145   0.891E-03    0.206E-03
RMM:   7    -0.109280182416E+03   -0.26354E-05   -0.16953E-06   121   0.508E-03    0.974E-04
RMM:   8    -0.109280183737E+03   -0.13208E-05   -0.42616E-07   114   0.307E-03    0.579E-04
RMM:   9    -0.109280185881E+03   -0.21438E-05   -0.28106E-07   114   0.211E-03    0.409E-04
RMM:  10    -0.109280187159E+03   -0.12777E-05   -0.12647E-07   112   0.134E-03    0.239E-04
RMM:  11    -0.109280188383E+03   -0.12246E-05   -0.67827E-08    88   0.912E-04    0.126E-04
RMM:  12    -0.109280190048E+03   -0.16652E-05   -0.12020E-07    94   0.978E-04    0.136E-04
RMM:  13    -0.109280190612E+03   -0.56329E-06   -0.35012E-08    80   0.714E-04
  51 F= -.10975225E+03 E0= -.10975225E+03  d E =-.260426E-12  mag=    -0.0000
       N       E                     dE             d eps       ncg     rms          rms(c)
DAV:   1    -0.109279452463E+03    0.73759E-03   -0.18975E-01   208   0.163E+00    0.221E-01
RMM:   2    -0.109278660857E+03    0.79161E-03   -0.27876E-03   156   0.202E-01    0.119E-01
RMM:   3    -0.109278623571E+03    0.37285E-04   -0.18700E-03   158   0.139E-01    0.378E-02
RMM:   4    -0.109278593951E+03    0.29620E-04   -0.17808E-04   156   0.538E-02    0.138E-02
RMM:   5    -0.109278600514E+03   -0.65631E-05   -0.59352E-05   168   0.261E-02    0.507E-03
RMM:   6    -0.109278601640E+03   -0.11259E-05   -0.74369E-06   152   0.104E-02    0.293E-03
RMM:   7    -0.109278602586E+03   -0.94522E-06   -0.29533E-06   136   0.586E-03
  52 F= -.10975083E+03 E0= -.10975083E+03  d E =-.221332E-11  mag=    -0.0000
       N       E                     dE             d eps       ncg     rms          rms(c)
DAV:   1    -0.109280320818E+03   -0.17192E-02   -0.36446E-01   208   0.228E+00    0.289E-01
RMM:   2    -0.109279057047E+03    0.12638E-02   -0.47045E-03   156   0.263E-01    0.155E-01
RMM:   3    -0.109278990049E+03    0.66997E-04   -0.30019E-03   156   0.176E-01    0.472E-02
RMM:   4    -0.109278951402E+03    0.38647E-04   -0.28092E-04   156   0.688E-02    0.171E-02
RMM:   5    -0.109278962427E+03   -0.11025E-04   -0.96207E-05   166   0.333E-02    0.643E-03
RMM:   6    -0.109278965215E+03   -0.27872E-05   -0.14662E-05   160   0.136E-02    0.371E-03
RMM:   7    -0.109278967261E+03   -0.20461E-05   -0.53275E-06   146   0.810E-03    0.177E-03
RMM:   8    -0.109278968658E+03   -0.13970E-05   -0.10093E-06   116   0.419E-03    0.795E-04
RMM:   9    -0.109278970471E+03   -0.18137E-05   -0.44391E-07   114   0.286E-03    0.524E-04
RMM:  10    -0.109278971405E+03   -0.93312E-06   -0.18788E-07   114   0.193E-03
  53 F= -.10975092E+03 E0= -.10975092E+03  d E =-.381358E-12  mag=    -0.0000
       N       E                     dE             d eps       ncg     rms          rms(c)
DAV:   1    -0.109281797137E+03   -0.28267E-02   -0.17490E-01   208   0.157E+00    0.178E-01
RMM:   2    -0.109281389004E+03    0.40813E-03   -0.17426E-03   156   0.166E-01    0.990E-02
RMM:   3    -0.109281376305E+03    0.12699E-04   -0.10572E-03   156   0.108E-01    0.275E-02
RMM:   4    -0.109281364258E+03    0.12046E-04   -0.11463E-04   158   0.421E-02    0.104E-02
RMM:   5    -0.109281367795E+03   -0.35373E-05   -0.24813E-05   158   0.196E-02    0.369E-03
RMM:   6    -0.109281369150E+03   -0.13542E-05   -0.68377E-06   150   0.883E-03    0.203E-03
RMM:   7    -0.109281369998E+03   -0.84795E-06   -0.13386E-06   114   0.437E-03
  54 F= -.10975348E+03 E0= -.10975348E+03  d E =-.901683E-12  mag=    -0.0000
       N       E                     dE             d eps       ncg     rms          rms(c)
DAV:   1    -0.109281196239E+03    0.17291E-03   -0.31849E-01   208   0.216E+00    0.180E-01
RMM:   2    -0.109281121811E+03    0.74428E-04   -0.15257E-03   156   0.167E-01    0.106E-01
RMM:   3    -0.109281149963E+03   -0.28152E-04   -0.57993E-04   156   0.915E-02    0.116E-02
RMM:   4    -0.109281156470E+03   -0.65075E-05   -0.12141E-04   170   0.389E-02    0.611E-03
RMM:   5    -0.109281156673E+03   -0.20294E-06   -0.15550E-05   157   0.155E-02    0.280E-03
RMM:   6    -0.109281158425E+03   -0.17513E-05   -0.34801E-06   136   0.793E-03    0.133E-03
RMM:   7    -0.109281160144E+03   -0.17193E-05   -0.96969E-07   118   0.526E-03    0.729E-04
RMM:   8    -0.109281162255E+03   -0.21114E-05   -0.51123E-07   116   0.339E-03    0.403E-04
RMM:   9    -0.109281164385E+03   -0.21297E-05   -0.26635E-07   112   0.197E-03    0.247E-04
RMM:  10    -0.109281167718E+03   -0.33327E-05   -0.28609E-07   104   0.139E-03    0.168E-04
RMM:  11    -0.109281169164E+03   -0.14462E-05   -0.13058E-07    91   0.102E-03    0.118E-04
RMM:  12    -0.109281170981E+03   -0.18168E-05   -0.14198E-07    96   0.954E-04    0.661E-05
RMM:  13    -0.109281171899E+03   -0.91868E-06   -0.49056E-08    78   0.751E-04
  55 F= -.10975323E+03 E0= -.10975323E+03  d E =-.462291E-12  mag=     0.0000
       N       E                     dE             d eps       ncg     rms          rms(c)
DAV:   1    -0.109280340824E+03    0.83016E-03   -0.16429E-01   208   0.153E+00    0.138E-01
RMM:   2    -0.109280234483E+03    0.10634E-03   -0.11056E-03   156   0.139E-01    0.801E-02
RMM:   3    -0.109280245551E+03   -0.11068E-04   -0.49367E-04   156   0.788E-02    0.161E-02
RMM:   4    -0.109280242523E+03    0.30277E-05   -0.64265E-05   158   0.313E-02    0.586E-03
RMM:   5    -0.109280244639E+03   -0.21159E-05   -0.16594E-05   162   0.149E-02    0.259E-03
RMM:   6    -0.109280246305E+03   -0.16659E-05   -0.20866E-06   124   0.557E-03    0.985E-04
RMM:   7    -0.109280247697E+03   -0.13918E-05   -0.51503E-07   114   0.289E-03    0.603E-04
RMM:   8    -0.109280249377E+03   -0.16807E-05   -0.24918E-07   112   0.189E-03    0.315E-04
RMM:   9    -0.109280250687E+03   -0.13094E-05   -0.14308E-07   108   0.136E-03    0.218E-04
RMM:  10    -0.109280251923E+03   -0.12360E-05   -0.85675E-08    94   0.102E-03    0.151E-04
RMM:  11    -0.109280253407E+03   -0.14836E-05   -0.97720E-08    92   0.928E-04    0.892E-05
RMM:  12    -0.109280254477E+03   -0.10702E-05   -0.89460E-08    88   0.841E-04    0.835E-05
RMM:  13    -0.109280255150E+03   -0.67273E-06   -0.35583E-08    79   0.721E-04
  56 F= -.10975232E+03 E0= -.10975232E+03  d E =-.241951E-12  mag=    -0.0000
       N       E                     dE             d eps       ncg     rms          rms(c)
DAV:   1    -0.109280773010E+03   -0.51853E-03   -0.34088E-01   208   0.216E+00    0.215E-01
RMM:   2    -0.109280338357E+03    0.43465E-03   -0.22227E-03   156   0.181E-01    0.121E-01
RMM:   3    -0.109280333643E+03    0.47145E-05   -0.12762E-03   158   0.117E-01    0.304E-02
RMM:   4    -0.109280318160E+03    0.15483E-04   -0.12857E-04   158   0.437E-02    0.948E-03
RMM:   5    -0.109280321264E+03   -0.31046E-05   -0.27854E-05   160   0.200E-02    0.404E-03
RMM:   6    -0.109280322877E+03   -0.16132E-05   -0.52093E-06   146   0.829E-03    0.190E-03
RMM:   7    -0.109280324686E+03   -0.18086E-05   -0.15298E-06   118   0.443E-03    0.930E-04
RMM:   8    -0.109280326260E+03   -0.15739E-05   -0.38272E-07   114   0.234E-03    0.473E-04
RMM:   9    -0.109280328760E+03   -0.24998E-05   -0.25322E-07   114   0.164E-03    0.335E-04
RMM:  10    -0.109280329636E+03   -0.87595E-06   -0.68328E-08    94   0.102E-03
  57 F= -.10975244E+03 E0= -.10975244E+03  d E =-.129515E-11  mag=     0.0000
       N       E                     dE             d eps       ncg     rms          rms(c)
DAV:   1    -0.109278615892E+03    0.17129E-02   -0.16640E-01   208   0.152E+00    0.133E-01
RMM:   2    -0.109278545368E+03    0.70523E-04   -0.77839E-04   156   0.110E-01    0.766E-02
RMM:   3    -0.109278561958E+03   -0.16590E-04   -0.34587E-04   156   0.648E-02    0.125E-02
RMM:   4    -0.109278561440E+03    0.51798E-06   -0.42372E-05   156   0.250E-02    0.499E-03
RMM:   5    -0.109278562140E+03   -0.69994E-06   -0.90584E-06   152   0.115E-02
  58 F= -.10975079E+03 E0= -.10975079E+03  d E =-.133162E-11  mag=     0.0000
       N       E                     dE             d eps       ncg     rms          rms(c)
DAV:   1    -0.109280358761E+03   -0.17973E-02   -0.36416E-01   208   0.228E+00    0.289E-01
RMM:   2    -0.109279090092E+03    0.12687E-02   -0.46579E-03   156   0.263E-01    0.156E-01
RMM:   3    -0.109279015415E+03    0.74677E-04   -0.29967E-03   156   0.176E-01    0.469E-02
RMM:   4    -0.109278979384E+03    0.36031E-04   -0.31055E-04   158   0.689E-02    0.175E-02
RMM:   5    -0.109278987026E+03   -0.76425E-05   -0.66771E-05   164   0.315E-02    0.604E-03
RMM:   6    -0.109278990008E+03   -0.29822E-05   -0.14211E-05   160   0.138E-02    0.340E-03
RMM:   7    -0.109278991643E+03   -0.16348E-05   -0.48682E-06   146   0.881E-03    0.167E-03
RMM:   8    -0.109278992866E+03   -0.12229E-05   -0.10793E-06   117   0.472E-03    0.109E-03
RMM:   9    -0.109278994378E+03   -0.15123E-05   -0.52367E-07   114   0.279E-03    0.575E-04
RMM:  10    -0.109278995468E+03   -0.10892E-05   -0.17992E-07   112   0.165E-03    0.265E-04
RMM:  11    -0.109278996316E+03   -0.84810E-06   -0.69100E-08    96   0.105E-03
  59 F= -.10975094E+03 E0= -.10975094E+03  d E =-.401883E-12  mag=     0.0000
       N       E                     dE             d eps       ncg     rms          rms(c)
DAV:   1    -0.109281776896E+03   -0.27814E-02   -0.17549E-01   208   0.158E+00    0.181E-01
RMM:   2    -0.109281351802E+03    0.42509E-03   -0.17877E-03   156   0.168E-01    0.100E-01
RMM:   3    -0.109281336547E+03    0.15255E-04   -0.10905E-03   156   0.109E-01    0.280E-02
RMM:   4    -0.109281323649E+03    0.12898E-04   -0.11810E-04   158   0.427E-02    0.106E-02
RMM:   5    -0.109281327177E+03   -0.35274E-05   -0.25635E-05   160   0.199E-02    0.375E-03
RMM:   6    -0.109281328512E+03   -0.13348E-05   -0.69322E-06   150   0.886E-03    0.209E-03
RMM:   7    -0.109281329335E+03   -0.82297E-06   -0.13620E-06   117   0.431E-03
  60 F= -.10975344E+03 E0= -.10975344E+03  d E =-.973651E-12  mag=     0.0000
       N       E                     dE             d eps       ncg     rms          rms(c)
DAV:   1    -0.109281207561E+03    0.12095E-03   -0.31880E-01   208   0.216E+00    0.182E-01
RMM:   2    -0.109281124955E+03    0.82605E-04   -0.15699E-03   156   0.170E-01    0.106E-01
RMM:   3    -0.109281152134E+03   -0.27179E-04   -0.60473E-04   156   0.931E-02    0.125E-02
RMM:   4    -0.109281158323E+03   -0.61892E-05   -0.12464E-04   170   0.394E-02    0.635E-03
RMM:   5    -0.109281158637E+03   -0.31441E-06   -0.15842E-05   158   0.155E-02    0.291E-03
RMM:   6    -0.109281160481E+03   -0.18435E-05   -0.34509E-06   134   0.747E-03    0.136E-03
RMM:   7    -0.109281162154E+03   -0.16729E-05   -0.82404E-07   116   0.451E-03    0.769E-04
RMM:   8    -0.109281164354E+03   -0.22003E-05   -0.45383E-07   114   0.288E-03    0.400E-04
RMM:   9    -0.109281166457E+03   -0.21034E-05   -0.23863E-07   112   0.179E-03    0.254E-04
RMM:  10    -0.109281169794E+03   -0.33367E-05   -0.28189E-07   104   0.143E-03    0.179E-04
RMM:  11    -0.109281171240E+03   -0.14460E-05   -0.13396E-07    92   0.106E-03    0.124E-04
RMM:  12    -0.109281173114E+03   -0.18734E-05   -0.14327E-07    94   0.956E-04    0.689E-05
RMM:  13    -0.109281174038E+03   -0.92478E-06   -0.50742E-08    78   0.770E-04
  61 F= -.10975323E+03 E0= -.10975323E+03  d E =-.454074E-12  mag=    -0.0000
       N       E                     dE             d eps       ncg     rms          rms(c)
DAV:   1    -0.109277122503E+03    0.40506E-02   -0.62513E-01   208   0.336E+00    0.180E-01
RMM:   2    -0.109277111128E+03    0.11376E-04   -0.50199E-03   156   0.328E-01    0.106E-01
RMM:   3    -0.109277056963E+03    0.54165E-04   -0.15471E-03   160   0.154E-01    0.278E-02
RMM:   4    -0.109277072647E+03   -0.15684E-04   -0.25524E-04   166   0.657E-02    0.194E-02
RMM:   5    -0.109277076253E+03   -0.36065E-05   -0.47628E-05   162   0.279E-02    0.135E-02
RMM:   6    -0.109277079690E+03   -0.34367E-05   -0.12972E-05   164   0.132E-02    0.581E-03
RMM:   7    -0.109277081881E+03   -0.21907E-05   -0.35628E-06   130   0.664E-03    0.222E-03
RMM:   8    -0.109277083111E+03   -0.12301E-05   -0.94374E-07   116   0.354E-03    0.857E-04
RMM:   9    -0.109277085585E+03   -0.24745E-05   -0.40858E-07   114   0.231E-03    0.443E-04
RMM:  10    -0.109277086537E+03   -0.95148E-06   -0.14568E-07   108   0.148E-03
  62 F= -.10974896E+03 E0= -.10974896E+03  d E =-.609617E-13  mag=    -0.0000
       N       E                     dE             d eps       ncg     rms          rms(c)
DAV:   1    -0.109276664634E+03    0.42095E-03   -0.21894E+00   208   0.583E+00    0.331E-01
RMM:   2    -0.109276390182E+03    0.27445E-03   -0.16657E-02   156   0.578E-01    0.184E-01
RMM:   3    -0.109276098176E+03    0.29201E-03   -0.50436E-03   160   0.271E-01    0.615E-02
RMM:   4    -0.109276145102E+03   -0.46926E-04   -0.79542E-04   162   0.119E-01    0.428E-02
RMM:   5    -0.109276170168E+03   -0.25066E-04   -0.19953E-04   166   0.515E-02    0.321E-02
RMM:   6    -0.109276182002E+03   -0.11834E-04   -0.50156E-05   162   0.255E-02    0.689E-03
RMM:   7    -0.109276184905E+03   -0.29029E-05   -0.11131E-05   154   0.120E-02    0.521E-03
RMM:   8    -0.109276187217E+03   -0.23119E-05   -0.27729E-06   126   0.597E-03    0.188E-03
RMM:   9    -0.109276190534E+03   -0.33174E-05   -0.74272E-07   114   0.386E-03    0.932E-04
RMM:  10    -0.109276192353E+03   -0.18190E-05   -0.32909E-07   114   0.275E-03    0.788E-04
RMM:  11    -0.109276194198E+03   -0.18455E-05   -0.16822E-07   114   0.160E-03    0.291E-04
RMM:  12    -0.109276196196E+03   -0.19976E-05   -0.98072E-08    94   0.104E-03    0.328E-04
RMM:  13    -0.109276196884E+03   -0.68774E-06   -0.37647E-08    86   0.826E-04
  63 F= -.10974850E+03 E0= -.10974850E+03  d E =-.734942E-11  mag=    -0.0000
       N       E                     dE             d eps       ncg     rms          rms(c)
DAV:   1    -0.109276071368E+03    0.12483E-03   -0.11110E+00   208   0.424E+00    0.219E-01
RMM:   2    -0.109275950999E+03    0.12037E-03   -0.79591E-03   156   0.409E-01    0.134E-01
RMM:   3    -0.109275768336E+03    0.18266E-03   -0.28368E-03   156   0.197E-01    0.240E-02
RMM:   4    -0.109275806122E+03   -0.37786E-04   -0.47111E-04   166   0.895E-02    0.197E-02
RMM:   5    -0.109275811611E+03   -0.54888E-05   -0.96621E-05   168   0.367E-02    0.146E-02
RMM:   6    -0.109275815183E+03   -0.35726E-05   -0.18992E-05   156   0.146E-02    0.599E-03
RMM:   7    -0.109275817211E+03   -0.20274E-05   -0.47942E-06   140   0.707E-03    0.176E-03
RMM:   8    -0.109275819198E+03   -0.19870E-05   -0.96201E-07   116   0.369E-03    0.856E-04
RMM:   9    -0.109275822719E+03   -0.35215E-05   -0.52263E-07   114   0.255E-03    0.665E-04
RMM:  10    -0.109275824085E+03   -0.13662E-05   -0.21219E-07   114   0.170E-03    0.309E-04
RMM:  11    -0.109275825995E+03   -0.19093E-05   -0.13505E-07   104   0.128E-03    0.296E-04
RMM:  12    -0.109275828543E+03   -0.25485E-05   -0.13709E-07   100   0.110E-03    0.154E-04
RMM:  13    -0.109275829603E+03   -0.10594E-05   -0.42901E-08    84   0.800E-04    0.156E-04
RMM:  14    -0.109275831492E+03   -0.18894E-05   -0.94658E-08    94   0.931E-04    0.939E-05
RMM:  15    -0.109275832068E+03   -0.57570E-06   -0.30426E-08    80   0.759E-04
  64 F= -.10974792E+03 E0= -.10974792E+03  d E =-.289366E-12  mag=    -0.0000
       N       E                     dE             d eps       ncg     rms          rms(c)
DAV:   1    -0.109276354103E+03   -0.52261E-03   -0.22533E+00   156   0.584E+00    0.305E-01
RMM:   2    -0.109275890820E+03    0.46328E-03   -0.13022E-02   156   0.514E-01    0.191E-01
RMM:   3    -0.109275509990E+03    0.38083E-03   -0.64465E-03   156   0.264E-01    0.291E-02
RMM:   4    -0.109275525767E+03   -0.15777E-04   -0.66514E-04   160   0.112E-01    0.178E-02
RMM:   5    -0.109275532986E+03   -0.72196E-05   -0.17120E-04   162   0.506E-02    0.111E-02
RMM:   6    -0.109275539373E+03   -0.63866E-05   -0.42168E-05   168   0.213E-02    0.482E-03
RMM:   7    -0.109275542217E+03   -0.28445E-05   -0.35880E-06   134   0.670E-03    0.207E-03
RMM:   8    -0.109275547528E+03   -0.53102E-05   -0.16854E-06   124   0.411E-03    0.812E-04
RMM:   9    -0.109275554333E+03   -0.68058E-05   -0.86693E-07   116   0.270E-03    0.549E-04
RMM:  10    -0.109275559813E+03   -0.54794E-05   -0.48278E-07   114   0.192E-03    0.484E-04
RMM:  11    -0.109275563840E+03   -0.40274E-05   -0.25916E-07   104   0.140E-03    0.268E-04
RMM:  12    -0.109275568201E+03   -0.43605E-05   -0.27878E-07   106   0.131E-03    0.178E-04
RMM:  13    -0.109275571089E+03   -0.28886E-05   -0.14380E-07    94   0.101E-03    0.102E-04
RMM:  14    -0.109275572768E+03   -0.16784E-05   -0.11881E-07    94   0.902E-04    0.668E-05
RMM:  15    -0.109275573372E+03   -0.60485E-06   -0.25720E-08    80   0.684E-04
  65 F= -.10974766E+03 E0= -.10974766E+03  d E =-.616921E-12  mag=    -0.0000
       N       E                     dE             d eps       ncg     rms          rms(c)
DAV:   1    -0.109276411507E+03   -0.83874E-03   -0.11257E+00   156   0.417E+00    0.215E-01
RMM:   2    -0.109276198905E+03    0.21260E-03   -0.67589E-03   156   0.369E-01    0.135E-01
RMM:   3    -0.109275995735E+03    0.20317E-03   -0.30711E-03   156   0.185E-01    0.187E-02
RMM:   4    -0.109276012328E+03   -0.16593E-04   -0.34553E-04   160   0.792E-02    0.133E-02
RMM:   5    -0.109276017818E+03   -0.54904E-05   -0.89589E-05   164   0.357E-02    0.892E-03
RMM:   6    -0.109276020522E+03   -0.27042E-05   -0.20383E-05   162   0.145E-02    0.310E-03
RMM:   7    -0.109276021809E+03   -0.12869E-05   -0.13576E-06   116   0.414E-03    0.107E-03
RMM:   8    -0.109276024697E+03   -0.28883E-05   -0.49521E-07   114   0.243E-03    0.521E-04
RMM:   9    -0.109276028582E+03   -0.38846E-05   -0.47695E-07   114   0.200E-03    0.461E-04
RMM:  10    -0.109276031999E+03   -0.34169E-05   -0.24399E-07   106   0.154E-03    0.240E-04
RMM:  11    -0.109276033934E+03   -0.19355E-05   -0.12481E-07   102   0.117E-03    0.161E-04
RMM:  12    -0.109276036356E+03   -0.24219E-05   -0.11670E-07    96   0.101E-03    0.100E-04
RMM:  13    -0.109276038439E+03   -0.20822E-05   -0.10086E-07    94   0.915E-04    0.772E-05
RMM:  14    -0.109276039103E+03   -0.66429E-06   -0.42515E-08    84   0.714E-04
  66 F= -.10974813E+03 E0= -.10974813E+03  d E =-.208170E-11  mag=     0.0000
       N       E                     dE             d eps       ncg     rms          rms(c)
DAV:   1    -0.109277103259E+03   -0.10648E-02   -0.22451E+00   156   0.568E+00    0.305E-01
RMM:   2    -0.109276590083E+03    0.51318E-03   -0.13380E-02   156   0.503E-01    0.192E-01
RMM:   3    -0.109276153121E+03    0.43696E-03   -0.64537E-03   156   0.267E-01    0.283E-02
RMM:   4    -0.109276189096E+03   -0.35975E-04   -0.78871E-04   162   0.114E-01    0.196E-02
RMM:   5    -0.109276198930E+03   -0.98345E-05   -0.17014E-04   160   0.498E-02    0.131E-02
RMM:   6    -0.109276205529E+03   -0.65988E-05   -0.45761E-05   166   0.213E-02    0.468E-03
RMM:   7    -0.109276208119E+03   -0.25897E-05   -0.25983E-06   126   0.562E-03    0.165E-03
RMM:   8    -0.109276211727E+03   -0.36087E-05   -0.12079E-06   120   0.336E-03    0.781E-04
RMM:   9    -0.109276218372E+03   -0.66448E-05   -0.56668E-07   112   0.227E-03    0.446E-04
RMM:  10    -0.109276223985E+03   -0.56122E-05   -0.49786E-07   112   0.187E-03    0.326E-04
RMM:  11    -0.109276227526E+03   -0.35413E-05   -0.24526E-07   108   0.141E-03    0.269E-04
RMM:  12    -0.109276232700E+03   -0.51743E-05   -0.31183E-07   100   0.133E-03    0.133E-04
RMM:  13    -0.109276234692E+03   -0.19921E-05   -0.12364E-07    94   0.963E-04    0.134E-04
RMM:  14    -0.109276236718E+03   -0.20258E-05   -0.92781E-08    90   0.890E-04    0.673E-05
RMM:  15    -0.109276237596E+03   -0.87778E-06   -0.66072E-08    90   0.780E-04
  67 F= -.10974832E+03 E0= -.10974832E+03  d E =-.129543E-12  mag=     0.0000
       N       E                     dE             d eps       ncg     rms          rms(c)
DAV:   1    -0.109274626615E+03    0.16101E-02   -0.11227E+00   156   0.458E+00    0.219E-01
RMM:   2    -0.109274857235E+03   -0.23062E-03   -0.11594E-02   156   0.510E-01    0.143E-01
RMM:   3    -0.109274626557E+03    0.23068E-03   -0.32990E-03   156   0.232E-01    0.305E-02
RMM:   4    -0.109274689517E+03   -0.62960E-04   -0.69519E-04   164   0.108E-01    0.233E-02
RMM:   5    -0.109274701432E+03   -0.11915E-04   -0.14856E-04   174   0.459E-02    0.180E-02
RMM:   6    -0.109274708710E+03   -0.72780E-05   -0.16992E-05   156   0.163E-02    0.620E-03
RMM:   7    -0.109274713616E+03   -0.49056E-05   -0.60522E-06   150   0.835E-03    0.236E-03
RMM:   8    -0.109274717738E+03   -0.41224E-05   -0.13971E-06   114   0.430E-03    0.158E-03
RMM:   9    -0.109274724284E+03   -0.65458E-05   -0.63263E-07   114   0.272E-03    0.758E-04
RMM:  10    -0.109274726022E+03   -0.17376E-05   -0.23625E-07   114   0.166E-03    0.392E-04
RMM:  11    -0.109274733062E+03   -0.70404E-05   -0.39815E-07   114   0.162E-03    0.418E-04
RMM:  12    -0.109274734706E+03   -0.16434E-05   -0.12853E-07    96   0.975E-04    0.277E-04
RMM:  13    -0.109274736404E+03   -0.16984E-05   -0.88125E-08    98   0.934E-04    0.225E-04
RMM:  14    -0.109274739263E+03   -0.28589E-05   -0.12465E-07    92   0.907E-04    0.130E-04
RMM:  15    -0.109274739900E+03   -0.63764E-06   -0.36251E-08    80   0.701E-04
  68 F= -.10974673E+03 E0= -.10974673E+03  d E =-.991676E-11  mag=     0.0000
       N       E                     dE             d eps       ncg     rms          rms(c)
DAV:   1    -0.109275404972E+03   -0.66571E-03   -0.22233E+00   182   0.640E+00    0.342E-01
RMM:   2    -0.109275249283E+03    0.15569E-03   -0.18318E-02   156   0.627E-01    0.196E-01
RMM:   3    -0.109274852194E+03    0.39709E-03   -0.64408E-03   158   0.315E-01    0.471E-02
RMM:   4    -0.109274945213E+03   -0.93019E-04   -0.12499E-03   166   0.136E-01    0.297E-02
RMM:   5    -0.109274968288E+03   -0.23075E-04   -0.23328E-04   160   0.574E-02    0.114E-02
RMM:   6    -0.109274986390E+03   -0.18101E-04   -0.47753E-05   176   0.260E-02    0.618E-03
RMM:   7    -0.109275007091E+03   -0.20701E-04   -0.59498E-06   146   0.920E-03    0.171E-03
RMM:   8    -0.109275017892E+03   -0.10802E-04   -0.15081E-06   120   0.455E-03    0.956E-04
RMM:   9    -0.109275034834E+03   -0.16942E-04   -0.11878E-06   116   0.339E-03    0.529E-04
RMM:  10    -0.109275042831E+03   -0.79963E-05   -0.52549E-07   114   0.223E-03    0.367E-04
RMM:  11    -0.109275055332E+03   -0.12501E-04   -0.78940E-07   116   0.234E-03    0.359E-04
RMM:  12    -0.109275059165E+03   -0.38332E-05   -0.33707E-07   102   0.154E-03    0.228E-04
RMM:  13    -0.109275064720E+03   -0.55547E-05   -0.32953E-07   106   0.143E-03    0.255E-04
RMM:  14    -0.109275066263E+03   -0.15433E-05   -0.14618E-07    96   0.976E-04    0.115E-04
RMM:  15    -0.109275067022E+03   -0.75855E-06   -0.35828E-08    78   0.693E-04
  69 F= -.10974724E+03 E0= -.10974724E+03  d E =-.549261E-13  mag=    -0.0000
       N       E                     dE             d eps       ncg     rms          rms(c)
DAV:   1    -0.109275755726E+03   -0.68946E-03   -0.11376E+00   208   0.461E+00    0.256E-01
RMM:   2    -0.109275282600E+03    0.47313E-03   -0.97741E-03   156   0.477E-01    0.143E-01
RMM:   3    -0.109275109642E+03    0.17296E-03   -0.38336E-03   160   0.239E-01    0.408E-02
RMM:   4    -0.109275120192E+03   -0.10549E-04   -0.49361E-04   160   0.978E-02    0.225E-02
RMM:   5    -0.109275135608E+03   -0.15417E-04   -0.18225E-04   170   0.490E-02    0.988E-03
RMM:   6    -0.109275139405E+03   -0.37961E-05   -0.21336E-05   164   0.185E-02    0.539E-03
RMM:   7    -0.109275147201E+03   -0.77962E-05   -0.69783E-06   156   0.106E-02    0.163E-03
RMM:   8    -0.109275150065E+03   -0.28641E-05   -0.15389E-06   118   0.480E-03    0.101E-03
RMM:   9    -0.109275156998E+03   -0.69335E-05   -0.71785E-07   114   0.298E-03    0.382E-04
RMM:  10    -0.109275158976E+03   -0.19778E-05   -0.22581E-07   114   0.175E-03    0.254E-04
RMM:  11    -0.109275164206E+03   -0.52298E-05   -0.30233E-07   112   0.151E-03    0.211E-04
RMM:  12    -0.109275166409E+03   -0.22031E-05   -0.13883E-07    92   0.109E-03    0.174E-04
RMM:  13    -0.109275167377E+03   -0.96788E-06   -0.71232E-08    92   0.881E-04
  70 F= -.10974725E+03 E0= -.10974725E+03  d E =-.126627E-11  mag=     0.0000
       N       E                     dE             d eps       ncg     rms          rms(c)
DAV:   1    -0.109276680083E+03   -0.15137E-02   -0.23298E+00   182   0.653E+00    0.382E-01
RMM:   2    -0.109274975795E+03    0.17043E-02   -0.20112E-02   156   0.681E-01    0.208E-01
RMM:   3    -0.109274603294E+03    0.37250E-03   -0.85958E-03   160   0.340E-01    0.619E-02
RMM:   4    -0.109274581450E+03    0.21843E-04   -0.90082E-04   160   0.132E-01    0.326E-02
RMM:   5    -0.109274613992E+03   -0.32542E-04   -0.42422E-04   168   0.674E-02    0.153E-02
RMM:   6    -0.109274611453E+03    0.25397E-05   -0.60114E-05   162   0.290E-02    0.711E-03
RMM:   7    -0.109274617488E+03   -0.60350E-05   -0.18582E-05   160   0.171E-02    0.381E-03
RMM:   8    -0.109274618786E+03   -0.12986E-05   -0.38877E-06   140   0.713E-03    0.167E-03
RMM:   9    -0.109274622105E+03   -0.33185E-05   -0.10618E-06   116   0.350E-03    0.623E-04
RMM:  10    -0.109274624354E+03   -0.22494E-05   -0.27033E-07   114   0.194E-03    0.237E-04
RMM:  11    -0.109274627070E+03   -0.27161E-05   -0.18270E-07   110   0.138E-03    0.136E-04
RMM:  12    -0.109274629183E+03   -0.21131E-05   -0.12865E-07   100   0.109E-03    0.109E-04
RMM:  13    -0.109274630231E+03   -0.10475E-05   -0.53814E-08    88   0.843E-04    0.689E-05
RMM:  14    -0.109274631644E+03   -0.14127E-05   -0.92298E-08    96   0.877E-04    0.348E-05
RMM:  15    -0.109274632088E+03   -0.44484E-06   -0.68923E-09    74   0.673E-04
  71 F= -.10974672E+03 E0= -.10974672E+03  d E =-.408325E-12  mag=    -0.0000
       N       E                     dE             d eps       ncg     rms          rms(c)
DAV:   1    -0.109280384961E+03   -0.57533E-02   -0.11255E+00   182   0.458E+00    0.247E-01
RMM:   2    -0.109279729640E+03    0.65532E-03   -0.84918E-03   156   0.430E-01    0.136E-01
RMM:   3    -0.109279633375E+03    0.96265E-04   -0.37197E-03   160   0.221E-01    0.389E-02
RMM:   4    -0.109279633381E+03   -0.63767E-08   -0.47972E-04   164   0.870E-02    0.208E-02
RMM:   5    -0.109279646020E+03   -0.12639E-04   -0.15275E-04   164   0.428E-02    0.952E-03
RMM:   6    -0.109279645675E+03    0.34433E-06   -0.23559E-05   162   0.186E-02    0.466E-03
RMM:   7    -0.109279648722E+03   -0.30470E-05   -0.79648E-06   152   0.105E-02    0.255E-03
RMM:   8    -0.109279649363E+03   -0.64023E-06   -0.14512E-06   116   0.474E-03
  72 F= -.10975174E+03 E0= -.10975174E+03  d E =-.430656E-12  mag=    -0.0000
       N       E                     dE             d eps       ncg     rms          rms(c)
DAV:   1    -0.109279611067E+03    0.37656E-04   -0.20505E+00   182   0.585E+00    0.250E-01
RMM:   2    -0.109279639498E+03   -0.28431E-04   -0.96497E-03   156   0.419E-01    0.147E-01
RMM:   3    -0.109279645368E+03   -0.58702E-05   -0.31816E-03   156   0.216E-01    0.235E-02
RMM:   4    -0.109279728118E+03   -0.82751E-04   -0.94798E-04   172   0.983E-02    0.179E-02
RMM:   5    -0.109279733776E+03   -0.56573E-05   -0.94187E-05   168   0.370E-02    0.861E-03
RMM:   6    -0.109279736316E+03   -0.25405E-05   -0.12454E-05   164   0.124E-02    0.376E-03
RMM:   7    -0.109279737578E+03   -0.12620E-05   -0.20492E-06   128   0.562E-03    0.118E-03
RMM:   8    -0.109279738532E+03   -0.95401E-06   -0.41372E-07   114   0.266E-03
  73 F= -.10975182E+03 E0= -.10975182E+03  d E =-.180568E-11  mag=     0.0000
       N       E                     dE             d eps       ncg     rms          rms(c)
DAV:   1    -0.109274979750E+03    0.47578E-02   -0.11265E+00   208   0.472E+00    0.235E-01
RMM:   2    -0.109274660091E+03    0.31966E-03   -0.94390E-03   156   0.466E-01    0.135E-01
RMM:   3    -0.109274555143E+03    0.10495E-03   -0.35853E-03   158   0.237E-01    0.381E-02
RMM:   4    -0.109274593631E+03   -0.38488E-04   -0.60287E-04   162   0.981E-02    0.256E-02
RMM:   5    -0.109274607238E+03   -0.13607E-04   -0.19756E-04   160   0.522E-02    0.123E-02
RMM:   6    -0.109274603643E+03    0.35955E-05   -0.43104E-05   164   0.245E-02    0.810E-03
RMM:   7    -0.109274605673E+03   -0.20299E-05   -0.12942E-05   160   0.126E-02    0.244E-03
RMM:   8    -0.109274606890E+03   -0.12175E-05   -0.23005E-06   124   0.664E-03    0.120E-03
RMM:   9    -0.109274608166E+03   -0.12754E-05   -0.63380E-07   116   0.405E-03    0.769E-04
RMM:  10    -0.109274609544E+03   -0.13784E-05   -0.26265E-07   114   0.228E-03    0.324E-04
RMM:  11    -0.109274610990E+03   -0.14458E-05   -0.11026E-07   110   0.131E-03    0.169E-04
RMM:  12    -0.109274612436E+03   -0.14464E-05   -0.62340E-08    93   0.954E-04    0.143E-04
RMM:  13    -0.109274613565E+03   -0.11290E-05   -0.57406E-08    89   0.844E-04    0.103E-04
RMM:  14    -0.109274614669E+03   -0.11038E-05   -0.44325E-08    84   0.811E-04    0.802E-05
RMM:  15    -0.109274615373E+03   -0.70360E-06   -0.21328E-08    78   0.762E-04
  74 F= -.10974668E+03 E0= -.10974668E+03  d E =-.962745E-14  mag=     0.0000
       N       E                     dE             d eps       ncg     rms          rms(c)
DAV:   1    -0.109276494744E+03   -0.18801E-02   -0.23436E+00   208   0.657E+00    0.396E-01
RMM:   2    -0.109274687121E+03    0.18076E-02   -0.19154E-02   156   0.657E-01    0.215E-01
RMM:   3    -0.109274254109E+03    0.43301E-03   -0.89037E-03   160   0.337E-01    0.646E-02
RMM:   4    -0.109274243173E+03    0.10936E-04   -0.83272E-04   156   0.131E-01    0.366E-02
RMM:   5    -0.109274269994E+03   -0.26821E-04   -0.39305E-04   164   0.724E-02    0.194E-02
RMM:   6    -0.109274268477E+03    0.15167E-05   -0.76388E-05   162   0.316E-02    0.110E-02
RMM:   7    -0.109274275003E+03   -0.65259E-05   -0.29201E-05   164   0.185E-02    0.516E-03
RMM:   8    -0.109274276498E+03   -0.14946E-05   -0.43912E-06   144   0.811E-03    0.224E-03
RMM:   9    -0.109274281434E+03   -0.49363E-05   -0.31566E-06   138   0.552E-03    0.148E-03
RMM:  10    -0.109274283256E+03   -0.18218E-05   -0.46017E-07   114   0.259E-03    0.767E-04
RMM:  11    -0.109274287573E+03   -0.43170E-05   -0.37499E-07   114   0.191E-03    0.398E-04
RMM:  12    -0.109274290677E+03   -0.31038E-05   -0.20351E-07   108   0.125E-03    0.404E-04
RMM:  13    -0.109274292145E+03   -0.14688E-05   -0.74264E-08    90   0.892E-04    0.176E-04
RMM:  14    -0.109274296017E+03   -0.38713E-05   -0.26587E-07   108   0.127E-03    0.317E-04
RMM:  15    -0.109274296889E+03   -0.87210E-06   -0.59646E-08    82   0.727E-04
  75 F= -.10974640E+03 E0= -.10974640E+03  d E =-.832070E-17  mag=     0.0000
       N       E                     dE             d eps       ncg     rms          rms(c)
DAV:   1    -0.109274764303E+03   -0.46829E-03   -0.11376E+00   156   0.461E+00    0.254E-01
RMM:   2    -0.109274527576E+03    0.23673E-03   -0.85224E-03   156   0.440E-01    0.148E-01
RMM:   3    -0.109274309673E+03    0.21790E-03   -0.29944E-03   156   0.215E-01    0.338E-02
RMM:   4    -0.109274333420E+03   -0.23748E-04   -0.43469E-04   162   0.941E-02    0.244E-02
RMM:   5    -0.109274338129E+03   -0.47085E-05   -0.10670E-04   166   0.399E-02    0.165E-02
RMM:   6    -0.109274342857E+03   -0.47280E-05   -0.17860E-05   158   0.168E-02    0.691E-03
RMM:   7    -0.109274346997E+03   -0.41399E-05   -0.77899E-06   148   0.949E-03    0.214E-03
RMM:   8    -0.109274350981E+03   -0.39844E-05   -0.18196E-06   120   0.519E-03    0.144E-03
RMM:   9    -0.109274357433E+03   -0.64514E-05   -0.10142E-06   118   0.342E-03    0.785E-04
RMM:  10    -0.109274358394E+03   -0.96131E-06   -0.29698E-07   114   0.202E-03
  76 F= -.10974632E+03 E0= -.10974632E+03  d E =-.178480E-10  mag=     0.0000
       N       E                     dE             d eps       ncg     rms          rms(c)
DAV:   1    -0.109275607289E+03   -0.12499E-02   -0.22763E+00   208   0.653E+00    0.359E-01
RMM:   2    -0.109274998734E+03    0.60855E-03   -0.18542E-02   156   0.649E-01    0.208E-01
RMM:   3    -0.109274610348E+03    0.38839E-03   -0.66895E-03   156   0.317E-01    0.495E-02
RMM:   4    -0.109274667688E+03   -0.57340E-04   -0.10212E-03   162   0.140E-01    0.310E-02
RMM:   5    -0.109274681700E+03   -0.14012E-04   -0.27588E-04   170   0.618E-02    0.175E-02
RMM:   6    -0.109274686173E+03   -0.44732E-05   -0.38470E-05   168   0.241E-02    0.838E-03
RMM:   7    -0.109274691600E+03   -0.54264E-05   -0.12161E-05   150   0.123E-02    0.265E-03
RMM:   8    -0.109274697289E+03   -0.56899E-05   -0.27734E-06   136   0.721E-03    0.157E-03
RMM:   9    -0.109274702928E+03   -0.56384E-05   -0.14777E-06   118   0.498E-03    0.883E-04
RMM:  10    -0.109274707429E+03   -0.45014E-05   -0.69336E-07   116   0.303E-03    0.620E-04
RMM:  11    -0.109274712213E+03   -0.47842E-05   -0.43215E-07   114   0.196E-03    0.450E-04
RMM:  12    -0.109274717538E+03   -0.53250E-05   -0.48571E-07   112   0.177E-03    0.329E-04
RMM:  13    -0.109274719553E+03   -0.20148E-05   -0.16513E-07    94   0.110E-03    0.231E-04
RMM:  14    -0.109274722595E+03   -0.30420E-05   -0.22435E-07   100   0.115E-03    0.111E-04
RMM:  15    -0.109274723625E+03   -0.10298E-05   -0.74765E-08    82   0.828E-04    0.879E-05
RMM:  16    -0.109274725209E+03   -0.15839E-05   -0.48298E-08    80   0.811E-04    0.403E-05
RMM:  17    -0.109274725729E+03   -0.51998E-06   -0.37453E-08    82   0.794E-04
  77 F= -.10974692E+03 E0= -.10974692E+03  d E =-.805553E-13  mag=    -0.0000
       N       E                     dE             d eps       ncg     rms          rms(c)
DAV:   1    -0.109280285204E+03   -0.55600E-02   -0.11098E+00   182   0.460E+00    0.234E-01
RMM:   2    -0.109280024997E+03    0.26021E-03   -0.79911E-03   156   0.416E-01    0.137E-01
RMM:   3    -0.109279885172E+03    0.13983E-03   -0.29466E-03   156   0.208E-01    0.297E-02
RMM:   4    -0.109279914430E+03   -0.29258E-04   -0.48067E-04   162   0.918E-02    0.194E-02
RMM:   5    -0.109279920550E+03   -0.61201E-05   -0.12421E-04   168   0.420E-02    0.112E-02
RMM:   6    -0.109279923530E+03   -0.29799E-05   -0.18392E-05   170   0.161E-02    0.614E-03
RMM:   7    -0.109279926829E+03   -0.32991E-05   -0.50263E-06   136   0.744E-03    0.161E-03
RMM:   8    -0.109279929109E+03   -0.22797E-05   -0.10410E-06   114   0.394E-03    0.978E-04
RMM:   9    -0.109279933320E+03   -0.42111E-05   -0.50415E-07   114   0.256E-03    0.486E-04
RMM:  10    -0.109279934956E+03   -0.16356E-05   -0.19063E-07   114   0.157E-03    0.346E-04
RMM:  11    -0.109279939166E+03   -0.42106E-05   -0.22037E-07   109   0.137E-03    0.228E-04
RMM:  12    -0.109279941209E+03   -0.20427E-05   -0.10644E-07    91   0.103E-03    0.157E-04
RMM:  13    -0.109279942556E+03   -0.13476E-05   -0.49651E-08    86   0.857E-04    0.102E-04
RMM:  14    -0.109279945064E+03   -0.25071E-05   -0.14553E-07    97   0.101E-03    0.655E-05
RMM:  15    -0.109279945443E+03   -0.37982E-06   -0.22476E-08    79   0.689E-04
  78 F= -.10975201E+03 E0= -.10975201E+03  d E =-.107643E-11  mag=    -0.0000
       N       E                     dE             d eps       ncg     rms          rms(c)
DAV:   1    -0.109280240647E+03   -0.29558E-03   -0.20700E+00   156   0.596E+00    0.252E-01
RMM:   2    -0.109280045466E+03    0.19518E-03   -0.82856E-03   156   0.400E-01    0.148E-01
RMM:   3    -0.109279938516E+03    0.10695E-03   -0.28616E-03   156   0.206E-01    0.227E-02
RMM:   4    -0.109280000227E+03   -0.61710E-04   -0.67426E-04   172   0.922E-02    0.201E-02
RMM:   5    -0.109280006043E+03   -0.58163E-05   -0.76032E-05   174   0.326E-02    0.120E-02
RMM:   6    -0.109280012208E+03   -0.61649E-05   -0.12384E-05   162   0.111E-02    0.376E-03
RMM:   7    -0.109280015329E+03   -0.31215E-05   -0.93203E-07   116   0.373E-03    0.134E-03
RMM:   8    -0.109280018392E+03   -0.30630E-05   -0.31911E-07   114   0.210E-03    0.491E-04
RMM:   9    -0.109280022753E+03   -0.43608E-05   -0.32738E-07   114   0.174E-03    0.332E-04
RMM:  10    -0.109280025336E+03   -0.25831E-05   -0.17616E-07   102   0.130E-03    0.306E-04
RMM:  11    -0.109280029232E+03   -0.38961E-05   -0.28786E-07   102   0.127E-03    0.150E-04
RMM:  12    -0.109280030629E+03   -0.13971E-05   -0.10295E-07    86   0.871E-04    0.974E-05
RMM:  13    -0.109280032200E+03   -0.15701E-05   -0.76540E-08    86   0.849E-04    0.662E-05
RMM:  14    -0.109280033048E+03   -0.84848E-06   -0.50570E-08    82   0.797E-04
  79 F= -.10975214E+03 E0= -.10975214E+03  d E =-.305584E-12  mag=    -0.0000
       N       E                     dE             d eps       ncg     rms          rms(c)
DAV:   1    -0.109274548137E+03    0.54841E-02   -0.11119E+00   156   0.456E+00    0.228E-01
RMM:   2    -0.109274296989E+03    0.25115E-03   -0.95747E-03   156   0.452E-01    0.133E-01
RMM:   3    -0.109274198855E+03    0.98134E-04   -0.35927E-03   160   0.224E-01    0.429E-02
RMM:   4    -0.109274208164E+03   -0.93094E-05   -0.39067E-04   158   0.861E-02    0.257E-02
RMM:   5    -0.109274224123E+03   -0.15958E-04   -0.15835E-04   164   0.478E-02    0.112E-02
RMM:   6    -0.109274223112E+03    0.10102E-05   -0.38546E-05   160   0.234E-02    0.835E-03
RMM:   7    -0.109274226427E+03   -0.33145E-05   -0.12074E-05   160   0.128E-02    0.362E-03
RMM:   8    -0.109274226936E+03   -0.50883E-06   -0.25635E-06   130   0.585E-03
  80 F= -.10974633E+03 E0= -.10974633E+03  d E =-.267409E-16  mag=    -0.0000
       N       E                     dE             d eps       ncg     rms          rms(c)
DAV:   1    -0.109276732637E+03   -0.25062E-02   -0.23403E+00   208   0.660E+00    0.395E-01
RMM:   2    -0.109274911749E+03    0.18209E-02   -0.19448E-02   156   0.657E-01    0.215E-01
RMM:   3    -0.109274513240E+03    0.39851E-03   -0.90259E-03   160   0.339E-01    0.645E-02
RMM:   4    -0.109274492314E+03    0.20927E-04   -0.83272E-04   156   0.131E-01    0.354E-02
RMM:   5    -0.109274519938E+03   -0.27625E-04   -0.40529E-04   166   0.725E-02    0.189E-02
RMM:   6    -0.109274517081E+03    0.28573E-05   -0.68894E-05   160   0.313E-02    0.111E-02
RMM:   7    -0.109274522823E+03   -0.57422E-05   -0.28481E-05   164   0.185E-02    0.494E-03
RMM:   8    -0.109274524070E+03   -0.12466E-05   -0.44481E-06   144   0.820E-03    0.183E-03
RMM:   9    -0.109274527953E+03   -0.38829E-05   -0.27173E-06   132   0.533E-03    0.150E-03
RMM:  10    -0.109274529396E+03   -0.14435E-05   -0.44981E-07   114   0.264E-03    0.695E-04
RMM:  11    -0.109274532079E+03   -0.26830E-05   -0.28707E-07   114   0.187E-03    0.469E-04
RMM:  12    -0.109274535908E+03   -0.38282E-05   -0.24716E-07   110   0.142E-03    0.511E-04
RMM:  13    -0.109274537007E+03   -0.10997E-05   -0.73068E-08    94   0.926E-04    0.225E-04
RMM:  14    -0.109274540337E+03   -0.33296E-05   -0.24023E-07   114   0.132E-03    0.431E-04
RMM:  15    -0.109274540879E+03   -0.54235E-06   -0.26792E-08    78   0.685E-04
  81 F= -.10974661E+03 E0= -.10974661E+03  d E =-.177822E-13  mag=    -0.0000
       N       E                     dE             d eps       ncg     rms          rms(c)
DAV:   1    -0.109275705902E+03   -0.11656E-02   -0.11725E+00   208   0.472E+00    0.275E-01
RMM:   2    -0.109274750664E+03    0.95524E-03   -0.10195E-02   156   0.483E-01    0.150E-01
RMM:   3    -0.109274552891E+03    0.19777E-03   -0.46295E-03   158   0.247E-01    0.439E-02
RMM:   4    -0.109274559227E+03   -0.63363E-05   -0.56929E-04   160   0.104E-01    0.262E-02
RMM:   5    -0.109274571559E+03   -0.12331E-04   -0.19388E-04   162   0.526E-02    0.103E-02
RMM:   6    -0.109274571103E+03    0.45591E-06   -0.35349E-05   164   0.224E-02    0.631E-03
RMM:   7    -0.109274573102E+03   -0.19993E-05   -0.88392E-06   152   0.116E-02    0.193E-03
RMM:   8    -0.109274573779E+03   -0.67652E-06   -0.20501E-06   124   0.536E-03
  82 F= -.10974654E+03 E0= -.10974654E+03  d E =-.156462E-10  mag=     0.0000
       N       E                     dE             d eps       ncg     rms          rms(c)
DAV:   1    -0.109275385107E+03   -0.81200E-03   -0.22765E+00   208   0.653E+00    0.359E-01
RMM:   2    -0.109274742707E+03    0.64240E-03   -0.18461E-02   156   0.645E-01    0.208E-01
RMM:   3    -0.109274358491E+03    0.38422E-03   -0.67997E-03   156   0.317E-01    0.486E-02
RMM:   4    -0.109274413324E+03   -0.54833E-04   -0.10194E-03   160   0.141E-01    0.300E-02
RMM:   5    -0.109274427229E+03   -0.13905E-04   -0.28559E-04   168   0.653E-02    0.172E-02
RMM:   6    -0.109274433407E+03   -0.61783E-05   -0.46908E-05   170   0.261E-02    0.839E-03
RMM:   7    -0.109274439620E+03   -0.62124E-05   -0.12783E-05   154   0.126E-02    0.263E-03
RMM:   8    -0.109274445242E+03   -0.56221E-05   -0.27323E-06   134   0.711E-03    0.154E-03
RMM:   9    -0.109274452757E+03   -0.75146E-05   -0.17868E-06   122   0.534E-03    0.888E-04
RMM:  10    -0.109274456191E+03   -0.34345E-05   -0.61790E-07   116   0.338E-03    0.616E-04
RMM:  11    -0.109274461923E+03   -0.57323E-05   -0.51567E-07   114   0.225E-03    0.577E-04
RMM:  12    -0.109274467131E+03   -0.52078E-05   -0.45727E-07   112   0.180E-03    0.302E-04
RMM:  13    -0.109274469251E+03   -0.21193E-05   -0.15050E-07    94   0.109E-03    0.219E-04
RMM:  14    -0.109274473285E+03   -0.40344E-05   -0.30303E-07   100   0.127E-03    0.129E-04
RMM:  15    -0.109274473945E+03   -0.65983E-06   -0.66431E-08    80   0.819E-04
  83 F= -.10974667E+03 E0= -.10974667E+03  d E =-.141933E-12  mag=     0.0000
       N       E                     dE             d eps       ncg     rms          rms(c)
DAV:   1    -0.109280391599E+03   -0.59183E-02   -0.11087E+00   156   0.460E+00    0.233E-01
RMM:   2    -0.109280167875E+03    0.22372E-03   -0.79920E-03   156   0.417E-01    0.137E-01
RMM:   3    -0.109280027247E+03    0.14063E-03   -0.28935E-03   156   0.207E-01    0.296E-02
RMM:   4    -0.109280059741E+03   -0.32494E-04   -0.50133E-04   164   0.916E-02    0.198E-02
RMM:   5    -0.109280063673E+03   -0.39315E-05   -0.10985E-04   166   0.407E-02    0.114E-02
RMM:   6    -0.109280066982E+03   -0.33090E-05   -0.18653E-05   172   0.161E-02    0.631E-03
RMM:   7    -0.109280070300E+03   -0.33190E-05   -0.45841E-06   136   0.719E-03    0.149E-03
RMM:   8    -0.109280072552E+03   -0.22517E-05   -0.93048E-07   114   0.381E-03    0.893E-04
RMM:   9    -0.109280076877E+03   -0.43250E-05   -0.48764E-07   114   0.255E-03    0.476E-04
RMM:  10    -0.109280078769E+03   -0.18913E-05   -0.19734E-07   112   0.165E-03    0.336E-04
RMM:  11    -0.109280081986E+03   -0.32170E-05   -0.17786E-07   108   0.143E-03    0.254E-04
RMM:  12    -0.109280084704E+03   -0.27180E-05   -0.15406E-07   100   0.119E-03    0.163E-04
RMM:  13    -0.109280086126E+03   -0.14226E-05   -0.69890E-08    90   0.832E-04    0.106E-04
RMM:  14    -0.109280088329E+03   -0.22029E-05   -0.74296E-08    86   0.861E-04    0.563E-05
RMM:  15    -0.109280088940E+03   -0.61135E-06   -0.53475E-08    88   0.760E-04
  84 F= -.10975215E+03 E0= -.10975215E+03  d E =-.849785E-12  mag=    -0.0000
       N       E                     dE             d eps       ncg     rms          rms(c)
DAV:   1    -0.109280168706E+03   -0.80377E-04   -0.20696E+00   156   0.596E+00    0.252E-01
RMM:   2    -0.109279985606E+03    0.18310E-03   -0.82731E-03   156   0.400E-01    0.148E-01
RMM:   3    -0.109279877223E+03    0.10838E-03   -0.28277E-03   156   0.205E-01    0.223E-02
RMM:   4    -0.109279939038E+03   -0.61816E-04   -0.66395E-04   172   0.919E-02    0.202E-02
RMM:   5    -0.109279944822E+03   -0.57838E-05   -0.73867E-05   174   0.321E-02    0.125E-02
RMM:   6    -0.109279951286E+03   -0.64636E-05   -0.12433E-05   158   0.110E-02    0.334E-03
RMM:   7    -0.109279954207E+03   -0.29216E-05   -0.89310E-07   116   0.364E-03    0.143E-03
RMM:   8    -0.109279957577E+03   -0.33698E-05   -0.33590E-07   114   0.208E-03    0.439E-04
RMM:   9    -0.109279962005E+03   -0.44274E-05   -0.31168E-07   112   0.160E-03    0.302E-04
RMM:  10    -0.109279965918E+03   -0.39130E-05   -0.26751E-07   108   0.129E-03    0.248E-04
RMM:  11    -0.109279968739E+03   -0.28214E-05   -0.22322E-07    96   0.110E-03    0.150E-04
RMM:  12    -0.109279970086E+03   -0.13469E-05   -0.87495E-08    84   0.849E-04    0.838E-05
RMM:  13    -0.109279971942E+03   -0.18564E-05   -0.10589E-07    88   0.908E-04    0.726E-05
RMM:  14    -0.109279972478E+03   -0.53536E-06   -0.50843E-08    84   0.742E-04
  85 F= -.10975208E+03 E0= -.10975208E+03  d E =-.342157E-12  mag=    -0.0000
       N       E                     dE             d eps       ncg     rms          rms(c)
DAV:   1    -0.109274702059E+03    0.52699E-02   -0.10459E+00   156   0.454E+00    0.195E-01
RMM:   2    -0.109274917612E+03   -0.21555E-03   -0.83322E-03   156   0.434E-01    0.119E-01
RMM:   3    -0.109274848089E+03    0.69523E-04   -0.24429E-03   158   0.207E-01    0.288E-02
RMM:   4    -0.109274898645E+03   -0.50556E-04   -0.57471E-04   172   0.921E-02    0.203E-02
RMM:   5    -0.109274909589E+03   -0.10944E-04   -0.88587E-05   168   0.339E-02    0.873E-03
RMM:   6    -0.109274917110E+03   -0.75209E-05   -0.14521E-05   172   0.136E-02    0.389E-03
RMM:   7    -0.109274924731E+03   -0.76217E-05   -0.18000E-06   120   0.538E-03    0.882E-04
RMM:   8    -0.109274929594E+03   -0.48631E-05   -0.54827E-07   114   0.287E-03    0.514E-04
RMM:   9    -0.109274936317E+03   -0.67221E-05   -0.40131E-07   114   0.210E-03    0.272E-04
RMM:  10    -0.109274940845E+03   -0.45286E-05   -0.24253E-07   110   0.149E-03    0.213E-04
RMM:  11    -0.109274944764E+03   -0.39184E-05   -0.21313E-07   108   0.128E-03    0.162E-04
RMM:  12    -0.109274947104E+03   -0.23409E-05   -0.13029E-07    96   0.101E-03    0.100E-04
RMM:  13    -0.109274949495E+03   -0.23903E-05   -0.10543E-07    88   0.930E-04    0.548E-05
RMM:  14    -0.109274950360E+03   -0.86529E-06   -0.55609E-08    84   0.816E-04
  86 F= -.10974713E+03 E0= -.10974713E+03  d E =-.817158E-13  mag=    -0.0000
       N       E                     dE             d eps       ncg     rms          rms(c)
DAV:   1    -0.109275339426E+03   -0.38993E-03   -0.22253E+00   182   0.626E+00    0.342E-01
RMM:   2    -0.109275029468E+03    0.30996E-03   -0.17839E-02   156   0.623E-01    0.196E-01
RMM:   3    -0.109274664053E+03    0.36542E-03   -0.66324E-03   158   0.317E-01    0.470E-02
RMM:   4    -0.109274749003E+03   -0.84950E-04   -0.12231E-03   166   0.137E-01    0.319E-02
RMM:   5    -0.109274765179E+03   -0.16176E-04   -0.23894E-04   160   0.595E-02    0.121E-02
RMM:   6    -0.109274781737E+03   -0.16558E-04   -0.54813E-05   178   0.275E-02    0.643E-03
RMM:   7    -0.109274800558E+03   -0.18822E-04   -0.61911E-06   148   0.933E-03    0.178E-03
RMM:   8    -0.109274811346E+03   -0.10788E-04   -0.16714E-06   122   0.473E-03    0.972E-04
RMM:   9    -0.109274827604E+03   -0.16258E-04   -0.13014E-06   118   0.341E-03    0.545E-04
RMM:  10    -0.109274837035E+03   -0.94310E-05   -0.66987E-07   116   0.225E-03    0.424E-04
RMM:  11    -0.109274846180E+03   -0.91442E-05   -0.62121E-07   114   0.196E-03    0.326E-04
RMM:  12    -0.109274851267E+03   -0.50872E-05   -0.42114E-07   104   0.149E-03    0.236E-04
RMM:  13    -0.109274856404E+03   -0.51375E-05   -0.31354E-07   108   0.138E-03    0.260E-04
RMM:  14    -0.109274857132E+03   -0.72735E-06   -0.90305E-08    90   0.861E-04
  87 F= -.10974684E+03 E0= -.10974684E+03  d E =-.140994E-10  mag=    -0.0000
       N       E                     dE             d eps       ncg     rms          rms(c)
DAV:   1    -0.109275587893E+03   -0.73149E-03   -0.11426E+00   182   0.472E+00    0.260E-01
RMM:   2    -0.109275087716E+03    0.50018E-03   -0.99162E-03   156   0.478E-01    0.144E-01
RMM:   3    -0.109274915946E+03    0.17177E-03   -0.40388E-03   160   0.243E-01    0.402E-02
RMM:   4    -0.109274932811E+03   -0.16865E-04   -0.56226E-04   162   0.989E-02    0.230E-02
RMM:   5    -0.109274945168E+03   -0.12356E-04   -0.15796E-04   164   0.484E-02    0.898E-03
RMM:   6    -0.109274949745E+03   -0.45774E-05   -0.30010E-05   170   0.206E-02    0.547E-03
RMM:   7    -0.109274957770E+03   -0.80248E-05   -0.67143E-06   154   0.102E-02    0.190E-03
RMM:   8    -0.109274960860E+03   -0.30900E-05   -0.15256E-06   118   0.467E-03    0.110E-03
RMM:   9    -0.109274967900E+03   -0.70405E-05   -0.84417E-07   114   0.330E-03    0.584E-04
RMM:  10    -0.109274969652E+03   -0.17515E-05   -0.23706E-07   114   0.206E-03    0.365E-04
RMM:  11    -0.109274971675E+03   -0.20229E-05   -0.13217E-07   110   0.141E-03    0.210E-04
RMM:  12    -0.109274976923E+03   -0.52482E-05   -0.29126E-07   112   0.149E-03    0.300E-04
RMM:  13    -0.109274977125E+03   -0.20206E-06   -0.44040E-08    84   0.753E-04
  88 F= -.10974706E+03 E0= -.10974706E+03  d E =-.103849E-11  mag=    -0.0000
       N       E                     dE             d eps       ncg     rms          rms(c)
DAV:   1    -0.109276842988E+03   -0.18661E-02   -0.23304E+00   182   0.653E+00    0.382E-01
RMM:   2    -0.109275107809E+03    0.17352E-02   -0.19906E-02   156   0.677E-01    0.208E-01
RMM:   3    -0.109274735649E+03    0.37216E-03   -0.85864E-03   160   0.340E-01    0.618E-02
RMM:   4    -0.109274714732E+03    0.20917E-04   -0.90253E-04   160   0.131E-01    0.324E-02
RMM:   5    -0.109274747892E+03   -0.33160E-04   -0.42338E-04   168   0.671E-02    0.152E-02
RMM:   6    -0.109274745475E+03    0.24169E-05   -0.59046E-05   162   0.288E-02    0.711E-03
RMM:   7    -0.109274751610E+03   -0.61354E-05   -0.18351E-05   160   0.170E-02    0.379E-03
RMM:   8    -0.109274752854E+03   -0.12439E-05   -0.36583E-06   138   0.705E-03    0.167E-03
RMM:   9    -0.109274756243E+03   -0.33889E-05   -0.10993E-06   116   0.366E-03    0.619E-04
RMM:  10    -0.109274758344E+03   -0.21004E-05   -0.28377E-07   114   0.220E-03    0.282E-04
RMM:  11    -0.109274759580E+03   -0.12361E-05   -0.11512E-07   108   0.140E-03    0.192E-04
RMM:  12    -0.109274762534E+03   -0.29538E-05   -0.15034E-07   103   0.116E-03    0.114E-04
RMM:  13    -0.109274763783E+03   -0.12493E-05   -0.69441E-08    93   0.854E-04    0.845E-05
RMM:  14    -0.109274764847E+03   -0.10641E-05   -0.42148E-08    82   0.767E-04    0.561E-05
RMM:  15    -0.109274765838E+03   -0.99079E-06   -0.64766E-08    88   0.814E-04
  89 F= -.10974685E+03 E0= -.10974685E+03  d E =-.432417E-12  mag=    -0.0000
       N       E                     dE             d eps       ncg     rms          rms(c)
DAV:   1    -0.109280290685E+03   -0.55258E-02   -0.11256E+00   156   0.458E+00    0.247E-01
RMM:   2    -0.109279635679E+03    0.65501E-03   -0.85059E-03   156   0.430E-01    0.136E-01
RMM:   3    -0.109279539511E+03    0.96167E-04   -0.37158E-03   160   0.221E-01    0.389E-02
RMM:   4    -0.109279539727E+03   -0.21535E-06   -0.48035E-04   164   0.870E-02    0.208E-02
RMM:   5    -0.109279552397E+03   -0.12670E-04   -0.15240E-04   164   0.427E-02    0.952E-03
RMM:   6    -0.109279552046E+03    0.35050E-06   -0.23564E-05   162   0.186E-02    0.467E-03
RMM:   7    -0.109279555056E+03   -0.30105E-05   -0.79260E-06   154   0.105E-02    0.253E-03
RMM:   8    -0.109279555693E+03   -0.63660E-06   -0.14046E-06   114   0.476E-03
  90 F= -.10975164E+03 E0= -.10975164E+03  d E =-.497167E-12  mag=     0.0000
       N       E                     dE             d eps       ncg     rms          rms(c)
DAV:   1    -0.109279656431E+03   -0.10137E-03   -0.20509E+00   156   0.585E+00    0.251E-01
RMM:   2    -0.109279684525E+03   -0.28094E-04   -0.96548E-03   156   0.419E-01    0.147E-01
RMM:   3    -0.109279692580E+03   -0.80551E-05   -0.31797E-03   156   0.215E-01    0.235E-02
RMM:   4    -0.109279776615E+03   -0.84034E-04   -0.95312E-04   172   0.982E-02    0.180E-02
RMM:   5    -0.109279781792E+03   -0.51772E-05   -0.89367E-05   164   0.368E-02    0.875E-03
RMM:   6    -0.109279784958E+03   -0.31666E-05   -0.15967E-05   168   0.142E-02    0.394E-03
RMM:   7    -0.109279786230E+03   -0.12714E-05   -0.19884E-06   126   0.551E-03    0.123E-03
RMM:   8    -0.109279787149E+03   -0.91965E-06   -0.41041E-07   114   0.263E-03
  91 F= -.10975188E+03 E0= -.10975188E+03  d E =-.148163E-11  mag=     0.0000
       N       E                     dE             d eps       ncg     rms          rms(c)
DAV:   1    -0.109276112699E+03    0.36735E-02   -0.10629E+00   208   0.445E+00    0.197E-01
RMM:   2    -0.109276259834E+03   -0.14714E-03   -0.84590E-03   156   0.410E-01    0.120E-01
RMM:   3    -0.109276223390E+03    0.36444E-04   -0.25498E-03   160   0.191E-01    0.342E-02
RMM:   4    -0.109276254565E+03   -0.31174E-04   -0.38287E-04   164   0.792E-02    0.231E-02
RMM:   5    -0.109276264040E+03   -0.94751E-05   -0.82234E-05   170   0.331E-02    0.164E-02
RMM:   6    -0.109276267707E+03   -0.36676E-05   -0.15648E-05   164   0.135E-02    0.621E-03
RMM:   7    -0.109276269728E+03   -0.20205E-05   -0.28217E-06   124   0.672E-03    0.253E-03
RMM:   8    -0.109276270623E+03   -0.89559E-06   -0.71379E-07   114   0.351E-03
  92 F= -.10974857E+03 E0= -.10974857E+03  d E =-.134240E-10  mag=    -0.0000
       N       E                     dE             d eps       ncg     rms          rms(c)
DAV:   1    -0.109277423616E+03   -0.11539E-02   -0.21855E+00   208   0.588E+00    0.322E-01
RMM:   2    -0.109277184991E+03    0.23863E-03   -0.17175E-02   156   0.578E-01    0.185E-01
RMM:   3    -0.109276891038E+03    0.29395E-03   -0.53834E-03   160   0.277E-01    0.554E-02
RMM:   4    -0.109276938754E+03   -0.47716E-04   -0.84297E-04   162   0.118E-01    0.382E-02
RMM:   5    -0.109276953672E+03   -0.14918E-04   -0.15769E-04   162   0.501E-02    0.290E-02
RMM:   6    -0.109276964704E+03   -0.11032E-04   -0.49779E-05   166   0.254E-02    0.689E-03
RMM:   7    -0.109276967575E+03   -0.28715E-05   -0.11918E-05   158   0.118E-02    0.423E-03
RMM:   8    -0.109276969726E+03   -0.21508E-05   -0.22602E-06   126   0.576E-03    0.170E-03
RMM:   9    -0.109276972920E+03   -0.31940E-05   -0.78706E-07   114   0.359E-03    0.773E-04
RMM:  10    -0.109276974665E+03   -0.17449E-05   -0.26579E-07   114   0.232E-03    0.732E-04
RMM:  11    -0.109276976328E+03   -0.16627E-05   -0.14583E-07   108   0.144E-03    0.380E-04
RMM:  12    -0.109276978777E+03   -0.24491E-05   -0.10996E-07    98   0.112E-03    0.326E-04
RMM:  13    -0.109276979145E+03   -0.36838E-06   -0.21329E-08    84   0.803E-04
  93 F= -.10974885E+03 E0= -.10974885E+03  d E =-.114056E-12  mag=     0.0000
       N       E                     dE             d eps       ncg     rms          rms(c)
DAV:   1    -0.109275876211E+03    0.11026E-02   -0.11097E+00   208   0.420E+00    0.219E-01
RMM:   2    -0.109275696297E+03    0.17991E-03   -0.71781E-03   156   0.386E-01    0.132E-01
RMM:   3    -0.109275520969E+03    0.17533E-03   -0.26203E-03   156   0.186E-01    0.249E-02
RMM:   4    -0.109275559790E+03   -0.38821E-04   -0.43521E-04   166   0.855E-02    0.197E-02
RMM:   5    -0.109275566623E+03   -0.68333E-05   -0.88833E-05   168   0.350E-02    0.143E-02
RMM:   6    -0.109275571039E+03   -0.44163E-05   -0.17288E-05   158   0.140E-02    0.534E-03
RMM:   7    -0.109275573567E+03   -0.25273E-05   -0.35437E-06   128   0.609E-03    0.146E-03
RMM:   8    -0.109275575512E+03   -0.19453E-05   -0.86857E-07   116   0.322E-03    0.781E-04
RMM:   9    -0.109275578417E+03   -0.29049E-05   -0.41698E-07   114   0.249E-03    0.471E-04
RMM:  10    -0.109275580124E+03   -0.17067E-05   -0.24017E-07   112   0.181E-03    0.338E-04
RMM:  11    -0.109275581583E+03   -0.14590E-05   -0.12395E-07   102   0.119E-03    0.304E-04
RMM:  12    -0.109275583723E+03   -0.21402E-05   -0.13728E-07    96   0.108E-03    0.150E-04
RMM:  13    -0.109275584815E+03   -0.10920E-05   -0.57434E-08    86   0.835E-04    0.180E-04
RMM:  14    -0.109275586056E+03   -0.12413E-05   -0.81096E-08    94   0.868E-04    0.111E-04
RMM:  15    -0.109275586494E+03   -0.43773E-06   -0.22681E-08    79   0.710E-04
  94 F= -.10974767E+03 E0= -.10974767E+03  d E =-.299995E-12  mag=    -0.0000
       N       E                     dE             d eps       ncg     rms          rms(c)
DAV:   1    -0.109276578453E+03   -0.99240E-03   -0.22532E+00   156   0.584E+00    0.305E-01
RMM:   2    -0.109276117475E+03    0.46098E-03   -0.12983E-02   156   0.513E-01    0.191E-01
RMM:   3    -0.109275733851E+03    0.38362E-03   -0.64202E-03   156   0.263E-01    0.291E-02
RMM:   4    -0.109275749713E+03   -0.15862E-04   -0.66272E-04   160   0.112E-01    0.177E-02
RMM:   5    -0.109275756985E+03   -0.72719E-05   -0.17084E-04   162   0.504E-02    0.110E-02
RMM:   6    -0.109275763357E+03   -0.63719E-05   -0.41956E-05   168   0.212E-02    0.480E-03
RMM:   7    -0.109275766227E+03   -0.28709E-05   -0.35319E-06   134   0.667E-03    0.207E-03
RMM:   8    -0.109275771465E+03   -0.52376E-05   -0.16618E-06   122   0.410E-03    0.817E-04
RMM:   9    -0.109275778025E+03   -0.65599E-05   -0.82710E-07   116   0.268E-03    0.543E-04
RMM:  10    -0.109275783301E+03   -0.52764E-05   -0.47150E-07   114   0.193E-03    0.510E-04
RMM:  11    -0.109275787500E+03   -0.41988E-05   -0.25843E-07   104   0.140E-03    0.276E-04
RMM:  12    -0.109275792142E+03   -0.46414E-05   -0.29722E-07   108   0.133E-03    0.175E-04
RMM:  13    -0.109275794901E+03   -0.27591E-05   -0.13858E-07    92   0.100E-03    0.103E-04
RMM:  14    -0.109275796659E+03   -0.17579E-05   -0.12399E-07    96   0.917E-04    0.673E-05
RMM:  15    -0.109275797278E+03   -0.61978E-06   -0.26607E-08    80   0.683E-04
  95 F= -.10974788E+03 E0= -.10974788E+03  d E =-.608243E-12  mag=     0.0000
       N       E                     dE             d eps       ncg     rms          rms(c)
DAV:   1    -0.109276773508E+03   -0.97685E-03   -0.11257E+00   156   0.418E+00    0.214E-01
RMM:   2    -0.109276587455E+03    0.18605E-03   -0.69000E-03   156   0.374E-01    0.136E-01
RMM:   3    -0.109276381864E+03    0.20559E-03   -0.30707E-03   156   0.187E-01    0.187E-02
RMM:   4    -0.109276399238E+03   -0.17374E-04   -0.34860E-04   160   0.805E-02    0.134E-02
RMM:   5    -0.109276405304E+03   -0.60660E-05   -0.93717E-05   166   0.364E-02    0.929E-03
RMM:   6    -0.109276407977E+03   -0.26729E-05   -0.18973E-05   160   0.136E-02    0.324E-03
RMM:   7    -0.109276408888E+03   -0.91044E-06   -0.17510E-06   126   0.456E-03
  96 F= -.10974849E+03 E0= -.10974849E+03  d E =-.393807E-11  mag=    -0.0000
       N       E                     dE             d eps       ncg     rms          rms(c)
DAV:   1    -0.109276685078E+03   -0.27710E-03   -0.22455E+00   156   0.568E+00    0.305E-01
RMM:   2    -0.109276185678E+03    0.49940E-03   -0.13331E-02   156   0.502E-01    0.192E-01
RMM:   3    -0.109275751018E+03    0.43466E-03   -0.64210E-03   156   0.266E-01    0.280E-02
RMM:   4    -0.109275787980E+03   -0.36962E-04   -0.78780E-04   162   0.113E-01    0.195E-02
RMM:   5    -0.109275798396E+03   -0.10415E-04   -0.16903E-04   160   0.495E-02    0.131E-02
RMM:   6    -0.109275804697E+03   -0.63013E-05   -0.45164E-05   168   0.212E-02    0.473E-03
RMM:   7    -0.109275806214E+03   -0.15169E-05   -0.26848E-06   126   0.600E-03    0.159E-03
RMM:   8    -0.109275808770E+03   -0.25564E-05   -0.11834E-06   118   0.384E-03    0.777E-04
RMM:   9    -0.109275811965E+03   -0.31945E-05   -0.46984E-07   114   0.288E-03    0.537E-04
RMM:  10    -0.109275817261E+03   -0.52968E-05   -0.49334E-07   114   0.221E-03    0.334E-04
RMM:  11    -0.109275820037E+03   -0.27757E-05   -0.22584E-07   104   0.136E-03    0.248E-04
RMM:  12    -0.109275825060E+03   -0.50226E-05   -0.32572E-07   102   0.137E-03    0.164E-04
RMM:  13    -0.109275826378E+03   -0.13180E-05   -0.10510E-07    92   0.926E-04    0.104E-04
RMM:  14    -0.109275828267E+03   -0.18895E-05   -0.54827E-08    82   0.829E-04    0.108E-04
RMM:  15    -0.109275829659E+03   -0.13918E-05   -0.98768E-08    94   0.887E-04    0.575E-05
RMM:  16    -0.109275829902E+03   -0.24242E-06    0.00000E+00    72   0.657E-04
  97 F= -.10974792E+03 E0= -.10974792E+03  d E =-.121232E-12  mag=     0.0000
       N       E                     dE             d eps       ncg     rms          rms(c)
DAV:   1    -0.109274600198E+03    0.12295E-02   -0.11472E+00   156   0.482E+00    0.244E-01
RMM:   2    -0.109274380342E+03    0.21986E-03   -0.11155E-02   156   0.518E-01    0.148E-01
RMM:   3    -0.109274162071E+03    0.21827E-03   -0.39632E-03   158   0.245E-01    0.344E-02
RMM:   4    -0.109274184333E+03   -0.22262E-04   -0.50790E-04   160   0.106E-01    0.234E-02
RMM:   5    -0.109274195473E+03   -0.11140E-04   -0.15929E-04   166   0.496E-02    0.120E-02
RMM:   6    -0.109274198572E+03   -0.30991E-05   -0.36214E-05   172   0.219E-02    0.824E-03
RMM:   7    -0.109274199872E+03   -0.13006E-05   -0.79588E-06   152   0.102E-02    0.238E-03
RMM:   8    -0.109274201221E+03   -0.13481E-05   -0.19912E-06   120   0.500E-03    0.118E-03
RMM:   9    -0.109274203971E+03   -0.27505E-05   -0.50688E-07   114   0.268E-03    0.752E-04
RMM:  10    -0.109274205939E+03   -0.19677E-05   -0.24331E-07   114   0.175E-03    0.305E-04
RMM:  11    -0.109274207998E+03   -0.20593E-05   -0.13159E-07   112   0.124E-03    0.247E-04
RMM:  12    -0.109274211126E+03   -0.31283E-05   -0.16698E-07    98   0.112E-03    0.171E-04
RMM:  13    -0.109274211944E+03   -0.81784E-06   -0.41091E-08    82   0.802E-04
  98 F= -.10974632E+03 E0= -.10974632E+03  d E =-.121098E-16  mag=     0.0000
       N       E                     dE             d eps       ncg     rms          rms(c)
DAV:   1    -0.109276869210E+03   -0.26581E-02   -0.23403E+00   156   0.660E+00    0.394E-01
RMM:   2    -0.109275058434E+03    0.18108E-02   -0.19412E-02   156   0.658E-01    0.215E-01
RMM:   3    -0.109274643010E+03    0.41542E-03   -0.89416E-03   160   0.338E-01    0.645E-02
RMM:   4    -0.109274621636E+03    0.21374E-04   -0.82537E-04   156   0.131E-01    0.356E-02
RMM:   5    -0.109274647863E+03   -0.26227E-04   -0.38753E-04   164   0.723E-02    0.187E-02
RMM:   6    -0.109274646870E+03    0.99310E-06   -0.72405E-05   162   0.314E-02    0.110E-02
RMM:   7    -0.109274654423E+03   -0.75523E-05   -0.29934E-05   164   0.186E-02    0.532E-03
RMM:   8    -0.109274655596E+03   -0.11734E-05   -0.45891E-06   146   0.836E-03    0.200E-03
RMM:   9    -0.109274660424E+03   -0.48279E-05   -0.30879E-06   138   0.553E-03    0.145E-03
RMM:  10    -0.109274662220E+03   -0.17964E-05   -0.44584E-07   114   0.285E-03    0.747E-04
RMM:  11    -0.109274666307E+03   -0.40864E-05   -0.34685E-07   114   0.227E-03    0.430E-04
RMM:  12    -0.109274670338E+03   -0.40310E-05   -0.26197E-07   112   0.174E-03    0.477E-04
RMM:  13    -0.109274671717E+03   -0.13794E-05   -0.85054E-08    95   0.106E-03    0.228E-04
RMM:  14    -0.109274675725E+03   -0.40085E-05   -0.25176E-07   114   0.133E-03    0.377E-04
RMM:  15    -0.109274676296E+03   -0.57081E-06   -0.37333E-08    80   0.688E-04
  99 F= -.10974674E+03 E0= -.10974674E+03  d E =-.243556E-13  mag=     0.0000
       N       E                     dE             d eps       ncg     rms          rms(c)
DAV:   1    -0.109274695151E+03   -0.19426E-04   -0.11331E+00   156   0.460E+00    0.249E-01
RMM:   2    -0.109274561027E+03    0.13412E-03   -0.85400E-03   156   0.446E-01    0.146E-01
RMM:   3    -0.109274351014E+03    0.21001E-03   -0.27531E-03   156   0.211E-01    0.348E-02
RMM:   4    -0.109274380038E+03   -0.29024E-04   -0.43660E-04   162   0.947E-02    0.255E-02
RMM:   5    -0.109274385812E+03   -0.57739E-05   -0.10700E-04   168   0.396E-02    0.185E-02
RMM:   6    -0.109274390353E+03   -0.45413E-05   -0.18949E-05   158   0.169E-02    0.637E-03
RMM:   7    -0.109274394221E+03   -0.38679E-05   -0.66253E-06   146   0.938E-03    0.227E-03
RMM:   8    -0.109274399732E+03   -0.55115E-05   -0.22841E-06   126   0.544E-03    0.167E-03
RMM:   9    -0.109274405195E+03   -0.54623E-05   -0.93786E-07   118   0.335E-03    0.698E-04
RMM:  10    -0.109274406665E+03   -0.14704E-05   -0.31546E-07   114   0.198E-03    0.439E-04
RMM:  11    -0.109274414073E+03   -0.74076E-05   -0.60144E-07   116   0.210E-03    0.487E-04
RMM:  12    -0.109274416047E+03   -0.19744E-05   -0.24788E-07   104   0.131E-03    0.242E-04
RMM:  13    -0.109274416833E+03   -0.78597E-06   -0.64279E-08    82   0.846E-04
 100 F= -.10974661E+03 E0= -.10974661E+03  d E =-.719975E-13  mag=    -0.0000
       N       E                     dE             d eps       ncg     rms          rms(c)
DAV:   1    -0.109275568984E+03   -0.11529E-02   -0.22749E+00   156   0.656E+00    0.354E-01
RMM:   2    -0.109275013796E+03    0.55519E-03   -0.18677E-02   156   0.638E-01    0.209E-01
RMM:   3    -0.109274600441E+03    0.41336E-03   -0.66850E-03   156   0.313E-01    0.488E-02
RMM:   4    -0.109274651099E+03   -0.50657E-04   -0.97894E-04   160   0.138E-01    0.285E-02
RMM:   5    -0.109274664297E+03   -0.13198E-04   -0.27312E-04   166   0.640E-02    0.143E-02
RMM:   6    -0.109274670062E+03   -0.57654E-05   -0.49249E-05   174   0.269E-02    0.814E-03
RMM:   7    -0.109274676032E+03   -0.59696E-05   -0.12829E-05   150   0.119E-02    0.249E-03
RMM:   8    -0.109274680618E+03   -0.45863E-05   -0.25841E-06   134   0.591E-03    0.149E-03
RMM:   9    -0.109274688725E+03   -0.81069E-05   -0.12866E-06   120   0.387E-03    0.795E-04
RMM:  10    -0.109274691644E+03   -0.29195E-05   -0.43573E-07   114   0.252E-03    0.533E-04
RMM:  11    -0.109274698785E+03   -0.71407E-05   -0.44188E-07   114   0.234E-03    0.402E-04
RMM:  12    -0.109274703534E+03   -0.47488E-05   -0.32689E-07   110   0.178E-03    0.308E-04
RMM:  13    -0.109274705671E+03   -0.21375E-05   -0.10606E-07    92   0.101E-03    0.188E-04
RMM:  14    -0.109274710160E+03   -0.44893E-05   -0.22402E-07    96   0.117E-03    0.132E-04
RMM:  15    -0.109274710877E+03   -0.71679E-06   -0.43797E-08    80   0.789E-04
 101 F= -.10974668E+03 E0= -.10974668E+03  d E =-.111076E-10  mag=     0.0000
       N       E                     dE             d eps       ncg     rms          rms(c)
DAV:   1    -0.109280387047E+03   -0.56769E-02   -0.11083E+00   156   0.459E+00    0.235E-01
RMM:   2    -0.109280132937E+03    0.25411E-03   -0.78622E-03   156   0.419E-01    0.136E-01
RMM:   3    -0.109279991979E+03    0.14096E-03   -0.27949E-03   156   0.205E-01    0.306E-02
RMM:   4    -0.109280025365E+03   -0.33386E-04   -0.48352E-04   166   0.912E-02    0.215E-02
RMM:   5    -0.109280028804E+03   -0.34387E-05   -0.96854E-05   166   0.380E-02    0.129E-02
RMM:   6    -0.109280032874E+03   -0.40700E-05   -0.18286E-05   174   0.157E-02    0.670E-03
RMM:   7    -0.109280036463E+03   -0.35886E-05   -0.40735E-06   136   0.666E-03    0.147E-03
RMM:   8    -0.109280039078E+03   -0.26155E-05   -0.83503E-07   114   0.351E-03    0.943E-04
RMM:   9    -0.109280043408E+03   -0.43295E-05   -0.46254E-07   114   0.239E-03    0.415E-04
RMM:  10    -0.109280045418E+03   -0.20108E-05   -0.20336E-07   110   0.160E-03    0.355E-04
RMM:  11    -0.109280048222E+03   -0.28036E-05   -0.16777E-07   104   0.137E-03    0.244E-04
RMM:  12    -0.109280051081E+03   -0.28591E-05   -0.21127E-07   104   0.124E-03    0.163E-04
RMM:  13    -0.109280052264E+03   -0.11827E-05   -0.66448E-08    82   0.815E-04    0.106E-04
RMM:  14    -0.109280054117E+03   -0.18531E-05   -0.11587E-07    93   0.944E-04    0.635E-05
RMM:  15    -0.109280054579E+03   -0.46238E-06   -0.39558E-08    83   0.738E-04
 102 F= -.10975216E+03 E0= -.10975216E+03  d E =-.273848E-12  mag=    -0.0000
       N       E                     dE             d eps       ncg     rms          rms(c)
DAV:   1    -0.109280260539E+03   -0.20642E-03   -0.20672E+00   156   0.596E+00    0.250E-01
RMM:   2    -0.109280058033E+03    0.20251E-03   -0.83531E-03   156   0.398E-01    0.148E-01
RMM:   3    -0.109279954420E+03    0.10361E-03   -0.29631E-03   156   0.209E-01    0.220E-02
RMM:   4    -0.109280010838E+03   -0.56418E-04   -0.67920E-04   170   0.931E-02    0.164E-02
RMM:   5    -0.109280018897E+03   -0.80598E-05   -0.90951E-05   172   0.362E-02    0.771E-03
RMM:   6    -0.109280023322E+03   -0.44249E-05   -0.13869E-05   166   0.123E-02    0.304E-03
RMM:   7    -0.109280026344E+03   -0.30219E-05   -0.15622E-06   122   0.486E-03    0.104E-03
RMM:   8    -0.109280029318E+03   -0.29735E-05   -0.41964E-07   114   0.249E-03    0.444E-04
RMM:   9    -0.109280032711E+03   -0.33928E-05   -0.24488E-07   112   0.167E-03    0.250E-04
RMM:  10    -0.109280036604E+03   -0.38936E-05   -0.24540E-07   110   0.135E-03    0.221E-04
RMM:  11    -0.109280038749E+03   -0.21449E-05   -0.12889E-07    96   0.100E-03    0.162E-04
RMM:  12    -0.109280041278E+03   -0.25286E-05   -0.15509E-07    96   0.957E-04    0.705E-05
RMM:  13    -0.109280042530E+03   -0.12522E-05   -0.47778E-08    76   0.762E-04    0.470E-05
RMM:  14    -0.109280043554E+03   -0.10238E-05   -0.51376E-08    81   0.788E-04    0.315E-05
RMM:  15    -0.109280043970E+03   -0.41610E-06   -0.15120E-08    76   0.727E-04
 103 F= -.10975211E+03 E0= -.10975211E+03  d E =-.522413E-12  mag=    -0.0000
       N       E                     dE             d eps       ncg     rms          rms(c)
DAV:   1    -0.109274863509E+03    0.51800E-02   -0.11051E+00   156   0.455E+00    0.222E-01
RMM:   2    -0.109274620018E+03    0.24349E-03   -0.92395E-03   156   0.446E-01    0.130E-01
RMM:   3    -0.109274528780E+03    0.91238E-04   -0.34221E-03   160   0.220E-01    0.428E-02
RMM:   4    -0.109274531461E+03   -0.26810E-05   -0.33495E-04   156   0.845E-02    0.248E-02
RMM:   5    -0.109274549594E+03   -0.18133E-04   -0.16465E-04   164   0.481E-02    0.110E-02
RMM:   6    -0.109274549818E+03   -0.22426E-06   -0.43585E-05   162   0.243E-02    0.885E-03
RMM:   7    -0.109274553727E+03   -0.39087E-05   -0.12704E-05   164   0.126E-02    0.383E-03
RMM:   8    -0.109274553956E+03   -0.22923E-06   -0.26917E-06   130   0.596E-03
 104 F= -.10974662E+03 E0= -.10974662E+03  d E =-.345795E-13  mag=    -0.0000
       N       E                     dE             d eps       ncg     rms          rms(c)
DAV:   1    -0.109276397677E+03   -0.18439E-02   -0.23440E+00   208   0.657E+00    0.396E-01
RMM:   2    -0.109274615902E+03    0.17818E-02   -0.19276E-02   156   0.659E-01    0.215E-01
RMM:   3    -0.109274189420E+03    0.42648E-03   -0.89604E-03   160   0.337E-01    0.653E-02
RMM:   4    -0.109274178711E+03    0.10709E-04   -0.84302E-04   156   0.132E-01    0.367E-02
RMM:   5    -0.109274208193E+03   -0.29481E-04   -0.41171E-04   166   0.730E-02    0.196E-02
RMM:   6    -0.109274205429E+03    0.27641E-05   -0.77763E-05   162   0.316E-02    0.111E-02
RMM:   7    -0.109274210009E+03   -0.45800E-05   -0.22785E-05   164   0.179E-02    0.471E-03
RMM:   8    -0.109274211675E+03   -0.16662E-05   -0.44381E-06   144   0.795E-03    0.195E-03
RMM:   9    -0.109274215007E+03   -0.33321E-05   -0.20992E-06   126   0.484E-03    0.133E-03
RMM:  10    -0.109274217177E+03   -0.21701E-05   -0.38069E-07   114   0.241E-03    0.630E-04
RMM:  11    -0.109274219919E+03   -0.27414E-05   -0.23271E-07   112   0.167E-03    0.364E-04
RMM:  12    -0.109274223166E+03   -0.32478E-05   -0.22415E-07   108   0.130E-03    0.342E-04
RMM:  13    -0.109274224748E+03   -0.15817E-05   -0.86538E-08    92   0.932E-04    0.184E-04
RMM:  14    -0.109274227671E+03   -0.29227E-05   -0.19717E-07   106   0.112E-03    0.230E-04
RMM:  15    -0.109274228172E+03   -0.50165E-06   -0.34866E-08    80   0.672E-04
 105 F= -.10974633E+03 E0= -.10974633E+03  d E =-.680395E-17  mag=     0.0000
       N       E                     dE             d eps       ncg     rms          rms(c)
DAV:   1    -0.109275624386E+03   -0.13967E-02   -0.11805E+00   208   0.471E+00    0.283E-01
RMM:   2    -0.109274558531E+03    0.10659E-02   -0.10534E-02   156   0.491E-01    0.153E-01
RMM:   3    -0.109274371227E+03    0.18730E-03   -0.49402E-03   158   0.256E-01    0.460E-02
RMM:   4    -0.109274368787E+03    0.24395E-05   -0.57483E-04   160   0.106E-01    0.272E-02
RMM:   5    -0.109274382730E+03   -0.13943E-04   -0.20418E-04   162   0.535E-02    0.109E-02
RMM:   6    -0.109274381577E+03    0.11535E-05   -0.35502E-05   162   0.230E-02    0.646E-03
RMM:   7    -0.109274384013E+03   -0.24361E-05   -0.97849E-06   155   0.124E-02    0.217E-03
RMM:   8    -0.109274384802E+03   -0.78910E-06   -0.20753E-06   121   0.559E-03
 106 F= -.10974658E+03 E0= -.10974658E+03  d E =-.118798E-12  mag=     0.0000
       N       E                     dE             d eps       ncg     rms          rms(c)
DAV:   1    -0.109275617704E+03   -0.12337E-02   -0.22748E+00   208   0.656E+00    0.354E-01
RMM:   2    -0.109275039172E+03    0.57853E-03   -0.18648E-02   156   0.634E-01    0.209E-01
RMM:   3    -0.109274639727E+03    0.39945E-03   -0.68068E-03   156   0.314E-01    0.479E-02
RMM:   4    -0.109274691951E+03   -0.52223E-04   -0.10115E-03   160   0.138E-01    0.284E-02
RMM:   5    -0.109274703787E+03   -0.11836E-04   -0.27690E-04   166   0.641E-02    0.145E-02
RMM:   6    -0.109274709203E+03   -0.54164E-05   -0.48698E-05   174   0.269E-02    0.835E-03
RMM:   7    -0.109274714780E+03   -0.55767E-05   -0.13394E-05   150   0.124E-02    0.254E-03
RMM:   8    -0.109274718984E+03   -0.42046E-05   -0.26665E-06   134   0.690E-03    0.152E-03
RMM:   9    -0.109274724891E+03   -0.59068E-05   -0.13474E-06   116   0.481E-03    0.871E-04
RMM:  10    -0.109274729117E+03   -0.42261E-05   -0.57969E-07   116   0.307E-03    0.578E-04
RMM:  11    -0.109274733722E+03   -0.46052E-05   -0.36127E-07   114   0.186E-03    0.447E-04
RMM:  12    -0.109274740272E+03   -0.65499E-05   -0.40375E-07   110   0.166E-03    0.310E-04
RMM:  13    -0.109274742467E+03   -0.21943E-05   -0.12495E-07    92   0.101E-03    0.238E-04
RMM:  14    -0.109274746397E+03   -0.39301E-05   -0.18697E-07    96   0.108E-03    0.121E-04
RMM:  15    -0.109274747562E+03   -0.11655E-05   -0.68925E-08    86   0.823E-04    0.950E-05
RMM:  16    -0.109274748985E+03   -0.14227E-05   -0.30953E-08    81   0.731E-04    0.575E-05
RMM:  17    -0.109274750030E+03   -0.10451E-05   -0.30196E-08    81   0.732E-04    0.365E-05
RMM:  18    -0.109274750335E+03   -0.30461E-06    0.00000E+00    72   0.669E-04
 107 F= -.10974671E+03 E0= -.10974671E+03  d E =-.401991E-11  mag=     0.0000
       N       E                     dE             d eps       ncg     rms          rms(c)
DAV:   1    -0.109280279384E+03   -0.55294E-02   -0.11073E+00   182   0.458E+00    0.234E-01
RMM:   2    -0.109280047618E+03    0.23177E-03   -0.78360E-03   156   0.418E-01    0.136E-01
RMM:   3    -0.109279905245E+03    0.14237E-03   -0.27531E-03   156   0.204E-01    0.302E-02
RMM:   4    -0.109279937864E+03   -0.32618E-04   -0.47106E-04   166   0.907E-02    0.212E-02
RMM:   5    -0.109279941304E+03   -0.34400E-05   -0.95530E-05   166   0.377E-02    0.130E-02
RMM:   6    -0.109279945372E+03   -0.40679E-05   -0.18679E-05   174   0.157E-02    0.657E-03
RMM:   7    -0.109279948778E+03   -0.34068E-05   -0.36179E-06   132   0.636E-03    0.151E-03
RMM:   8    -0.109279951559E+03   -0.27803E-05   -0.80387E-07   114   0.343E-03    0.959E-04
RMM:   9    -0.109279956200E+03   -0.46411E-05   -0.46655E-07   114   0.231E-03    0.410E-04
RMM:  10    -0.109279958409E+03   -0.22097E-05   -0.19856E-07   108   0.143E-03    0.375E-04
RMM:  11    -0.109279961681E+03   -0.32713E-05   -0.18802E-07   104   0.123E-03    0.219E-04
RMM:  12    -0.109279964498E+03   -0.28176E-05   -0.20156E-07   100   0.111E-03    0.158E-04
RMM:  13    -0.109279965771E+03   -0.12726E-05   -0.74763E-08    84   0.821E-04    0.967E-05
RMM:  14    -0.109279967683E+03   -0.19123E-05   -0.15078E-07    98   0.956E-04    0.695E-05
RMM:  15    -0.109279968112E+03   -0.42866E-06   -0.23816E-08    78   0.648E-04
 108 F= -.10975207E+03 E0= -.10975207E+03  d E =-.279906E-12  mag=    -0.0000
       N       E                     dE             d eps       ncg     rms          rms(c)
DAV:   1    -0.109280256950E+03   -0.28927E-03   -0.20664E+00   156   0.596E+00    0.250E-01
RMM:   2    -0.109280070238E+03    0.18671E-03   -0.83451E-03   156   0.398E-01    0.148E-01
RMM:   3    -0.109279963598E+03    0.10664E-03   -0.29419E-03   156   0.208E-01    0.218E-02
RMM:   4    -0.109280021004E+03   -0.57406E-04   -0.68361E-04   172   0.928E-02    0.165E-02
RMM:   5    -0.109280028047E+03   -0.70423E-05   -0.83501E-05   172   0.350E-02    0.802E-03
RMM:   6    -0.109280032966E+03   -0.49190E-05   -0.13896E-05   162   0.120E-02    0.287E-03
RMM:   7    -0.109280035911E+03   -0.29457E-05   -0.14847E-06   122   0.467E-03    0.107E-03
RMM:   8    -0.109280039094E+03   -0.31823E-05   -0.42387E-07   114   0.245E-03    0.429E-04
RMM:   9    -0.109280042454E+03   -0.33602E-05   -0.23514E-07   112   0.162E-03    0.258E-04
RMM:  10    -0.109280046943E+03   -0.44891E-05   -0.29023E-07   112   0.143E-03    0.221E-04
RMM:  11    -0.109280048822E+03   -0.18792E-05   -0.12740E-07    94   0.104E-03    0.164E-04
RMM:  12    -0.109280051204E+03   -0.23819E-05   -0.13066E-07    94   0.923E-04    0.705E-05
RMM:  13    -0.109280052667E+03   -0.14633E-05   -0.63857E-08    80   0.794E-04    0.495E-05
RMM:  14    -0.109280053602E+03   -0.93476E-06   -0.38477E-08    78   0.766E-04
 109 F= -.10975212E+03 E0= -.10975212E+03  d E =-.553119E-12  mag=     0.0000
