H10 C8                                  
   1.00000000000000     
    25.0000000000000000    0.0000000000000000    0.0000000000000000
     0.0000000000000000   25.0000000000000000    0.0000000000000000
     0.0000000000000000    0.0000000000000000   25.0000000000000000
   H    C 
    10     8
Direct
  0.7463498609961514  0.6433672659248119  0.6433247610072641
  0.7439972233088954  0.6205320314275800  0.5762938717475073
  0.7459433877023725  0.5736301808005116  0.6293617079381052
  0.6620738377384620  0.6966853116310896  0.6362851716487393
  0.5632372234794787  0.6968191655504946  0.6382454247629347
  0.4788306711730813  0.6209250021511363  0.5815193546964216
  0.4787993992083301  0.5740348858340140  0.6346268299211525
  0.4791795172176275  0.6437686617157654  0.6485788248804455
  0.5623409368312055  0.5281874796377587  0.6044645465849724
  0.6611707846777385  0.5280496469174989  0.6025285338720078
  0.7293990879845486  0.6124457159063409  0.6170969623282070
  0.6691585283990057  0.6123942281120016  0.6190235896243768
  0.6403627762369019  0.6594777038634440  0.6290132557128026
  0.5845432218812461  0.6595464687074140  0.6301179733183465
  0.5552516488466140  0.6125489395985008  0.6213088968163920
  0.4949809619800626  0.6128043386547091  0.6216980891168999
  0.5840472528555314  0.5655004451583820  0.6112805460283094
  0.6398616690827404  0.5654257639285427  0.6101779088351206
 
  0.00000000E+00  0.00000000E+00  0.00000000E+00
  0.00000000E+00  0.00000000E+00  0.00000000E+00
  0.00000000E+00  0.00000000E+00  0.00000000E+00
  0.00000000E+00  0.00000000E+00  0.00000000E+00
  0.00000000E+00  0.00000000E+00  0.00000000E+00
  0.00000000E+00  0.00000000E+00  0.00000000E+00
  0.00000000E+00  0.00000000E+00  0.00000000E+00
  0.00000000E+00  0.00000000E+00  0.00000000E+00
  0.00000000E+00  0.00000000E+00  0.00000000E+00
  0.00000000E+00  0.00000000E+00  0.00000000E+00
  0.00000000E+00  0.00000000E+00  0.00000000E+00
  0.00000000E+00  0.00000000E+00  0.00000000E+00
  0.00000000E+00  0.00000000E+00  0.00000000E+00
  0.00000000E+00  0.00000000E+00  0.00000000E+00
  0.00000000E+00  0.00000000E+00  0.00000000E+00
  0.00000000E+00  0.00000000E+00  0.00000000E+00
  0.00000000E+00  0.00000000E+00  0.00000000E+00
  0.00000000E+00  0.00000000E+00  0.00000000E+00
