unknown system                          
           1
    25.000000    0.000000    0.000000
     0.000000   25.000000    0.000000
     0.000000    0.000000   25.000000
   H    C 
    10     8
Direct configuration=     1
   0.74634986  0.64336727  0.64332476
   0.74399722  0.62053203  0.57629387
   0.74594339  0.57363018  0.62936171
   0.66207384  0.69668531  0.63628517
   0.56323722  0.69681917  0.63824542
   0.47883067  0.62092500  0.58151935
   0.47879940  0.57403489  0.63462683
   0.47917952  0.64376866  0.64857882
   0.56234094  0.52818748  0.60446455
   0.66117078  0.52804965  0.60252853
   0.72939909  0.61244572  0.61709696
   0.66915853  0.61239423  0.61902359
   0.64036278  0.65947770  0.62901326
   0.58454322  0.65954647  0.63011797
   0.55525165  0.61254894  0.62130890
   0.49498096  0.61280434  0.62169809
   0.58404725  0.56550045  0.61128055
   0.63986167  0.56542576  0.61017791
Direct configuration=     2
   0.74694986  0.64336727  0.64332476
   0.74399722  0.62053203  0.57629387
   0.74594339  0.57363018  0.62936171
   0.66207384  0.69668531  0.63628517
   0.56323722  0.69681917  0.63824542
   0.47883067  0.62092500  0.58151935
   0.47879940  0.57403489  0.63462683
   0.47917952  0.64376866  0.64857882
   0.56234094  0.52818748  0.60446455
   0.66117078  0.52804965  0.60252853
   0.72939909  0.61244572  0.61709696
   0.66915853  0.61239423  0.61902359
   0.64036278  0.65947770  0.62901326
   0.58454322  0.65954647  0.63011797
   0.55525165  0.61254894  0.62130890
   0.49498096  0.61280434  0.62169809
   0.58404725  0.56550045  0.61128055
   0.63986167  0.56542576  0.61017791
Direct configuration=     3
   0.74574986  0.64336727  0.64332476
   0.74399722  0.62053203  0.57629387
   0.74594339  0.57363018  0.62936171
   0.66207384  0.69668531  0.63628517
   0.56323722  0.69681917  0.63824542
   0.47883067  0.62092500  0.58151935
   0.47879940  0.57403489  0.63462683
   0.47917952  0.64376866  0.64857882
   0.56234094  0.52818748  0.60446455
   0.66117078  0.52804965  0.60252853
   0.72939909  0.61244572  0.61709696
   0.66915853  0.61239423  0.61902359
   0.64036278  0.65947770  0.62901326
   0.58454322  0.65954647  0.63011797
   0.55525165  0.61254894  0.62130890
   0.49498096  0.61280434  0.62169809
   0.58404725  0.56550045  0.61128055
   0.63986167  0.56542576  0.61017791
Direct configuration=     4
   0.74634986  0.64396727  0.64332476
   0.74399722  0.62053203  0.57629387
   0.74594339  0.57363018  0.62936171
   0.66207384  0.69668531  0.63628517
   0.56323722  0.69681917  0.63824542
   0.47883067  0.62092500  0.58151935
   0.47879940  0.57403489  0.63462683
   0.47917952  0.64376866  0.64857882
   0.56234094  0.52818748  0.60446455
   0.66117078  0.52804965  0.60252853
   0.72939909  0.61244572  0.61709696
   0.66915853  0.61239423  0.61902359
   0.64036278  0.65947770  0.62901326
   0.58454322  0.65954647  0.63011797
   0.55525165  0.61254894  0.62130890
   0.49498096  0.61280434  0.62169809
   0.58404725  0.56550045  0.61128055
   0.63986167  0.56542576  0.61017791
Direct configuration=     5
   0.74634986  0.64276727  0.64332476
   0.74399722  0.62053203  0.57629387
   0.74594339  0.57363018  0.62936171
   0.66207384  0.69668531  0.63628517
   0.56323722  0.69681917  0.63824542
   0.47883067  0.62092500  0.58151935
   0.47879940  0.57403489  0.63462683
   0.47917952  0.64376866  0.64857882
   0.56234094  0.52818748  0.60446455
   0.66117078  0.52804965  0.60252853
   0.72939909  0.61244572  0.61709696
   0.66915853  0.61239423  0.61902359
   0.64036278  0.65947770  0.62901326
   0.58454322  0.65954647  0.63011797
   0.55525165  0.61254894  0.62130890
   0.49498096  0.61280434  0.62169809
   0.58404725  0.56550045  0.61128055
   0.63986167  0.56542576  0.61017791
Direct configuration=     6
   0.74634986  0.64336727  0.64392476
   0.74399722  0.62053203  0.57629387
   0.74594339  0.57363018  0.62936171
   0.66207384  0.69668531  0.63628517
   0.56323722  0.69681917  0.63824542
   0.47883067  0.62092500  0.58151935
   0.47879940  0.57403489  0.63462683
   0.47917952  0.64376866  0.64857882
   0.56234094  0.52818748  0.60446455
   0.66117078  0.52804965  0.60252853
   0.72939909  0.61244572  0.61709696
   0.66915853  0.61239423  0.61902359
   0.64036278  0.65947770  0.62901326
   0.58454322  0.65954647  0.63011797
   0.55525165  0.61254894  0.62130890
   0.49498096  0.61280434  0.62169809
   0.58404725  0.56550045  0.61128055
   0.63986167  0.56542576  0.61017791
Direct configuration=     7
   0.74634986  0.64336727  0.64272476
   0.74399722  0.62053203  0.57629387
   0.74594339  0.57363018  0.62936171
   0.66207384  0.69668531  0.63628517
   0.56323722  0.69681917  0.63824542
   0.47883067  0.62092500  0.58151935
   0.47879940  0.57403489  0.63462683
   0.47917952  0.64376866  0.64857882
   0.56234094  0.52818748  0.60446455
   0.66117078  0.52804965  0.60252853
   0.72939909  0.61244572  0.61709696
   0.66915853  0.61239423  0.61902359
   0.64036278  0.65947770  0.62901326
   0.58454322  0.65954647  0.63011797
   0.55525165  0.61254894  0.62130890
   0.49498096  0.61280434  0.62169809
   0.58404725  0.56550045  0.61128055
   0.63986167  0.56542576  0.61017791
Direct configuration=     8
   0.74634986  0.64336727  0.64332476
   0.74459722  0.62053203  0.57629387
   0.74594339  0.57363018  0.62936171
   0.66207384  0.69668531  0.63628517
   0.56323722  0.69681917  0.63824542
   0.47883067  0.62092500  0.58151935
   0.47879940  0.57403489  0.63462683
   0.47917952  0.64376866  0.64857882
   0.56234094  0.52818748  0.60446455
   0.66117078  0.52804965  0.60252853
   0.72939909  0.61244572  0.61709696
   0.66915853  0.61239423  0.61902359
   0.64036278  0.65947770  0.62901326
   0.58454322  0.65954647  0.63011797
   0.55525165  0.61254894  0.62130890
   0.49498096  0.61280434  0.62169809
   0.58404725  0.56550045  0.61128055
   0.63986167  0.56542576  0.61017791
Direct configuration=     9
   0.74634986  0.64336727  0.64332476
   0.74339722  0.62053203  0.57629387
   0.74594339  0.57363018  0.62936171
   0.66207384  0.69668531  0.63628517
   0.56323722  0.69681917  0.63824542
   0.47883067  0.62092500  0.58151935
   0.47879940  0.57403489  0.63462683
   0.47917952  0.64376866  0.64857882
   0.56234094  0.52818748  0.60446455
   0.66117078  0.52804965  0.60252853
   0.72939909  0.61244572  0.61709696
   0.66915853  0.61239423  0.61902359
   0.64036278  0.65947770  0.62901326
   0.58454322  0.65954647  0.63011797
   0.55525165  0.61254894  0.62130890
   0.49498096  0.61280434  0.62169809
   0.58404725  0.56550045  0.61128055
   0.63986167  0.56542576  0.61017791
Direct configuration=    10
   0.74634986  0.64336727  0.64332476
   0.74399722  0.62113203  0.57629387
   0.74594339  0.57363018  0.62936171
   0.66207384  0.69668531  0.63628517
   0.56323722  0.69681917  0.63824542
   0.47883067  0.62092500  0.58151935
   0.47879940  0.57403489  0.63462683
   0.47917952  0.64376866  0.64857882
   0.56234094  0.52818748  0.60446455
   0.66117078  0.52804965  0.60252853
   0.72939909  0.61244572  0.61709696
   0.66915853  0.61239423  0.61902359
   0.64036278  0.65947770  0.62901326
   0.58454322  0.65954647  0.63011797
   0.55525165  0.61254894  0.62130890
   0.49498096  0.61280434  0.62169809
   0.58404725  0.56550045  0.61128055
   0.63986167  0.56542576  0.61017791
Direct configuration=    11
   0.74634986  0.64336727  0.64332476
   0.74399722  0.61993203  0.57629387
   0.74594339  0.57363018  0.62936171
   0.66207384  0.69668531  0.63628517
   0.56323722  0.69681917  0.63824542
   0.47883067  0.62092500  0.58151935
   0.47879940  0.57403489  0.63462683
   0.47917952  0.64376866  0.64857882
   0.56234094  0.52818748  0.60446455
   0.66117078  0.52804965  0.60252853
   0.72939909  0.61244572  0.61709696
   0.66915853  0.61239423  0.61902359
   0.64036278  0.65947770  0.62901326
   0.58454322  0.65954647  0.63011797
   0.55525165  0.61254894  0.62130890
   0.49498096  0.61280434  0.62169809
   0.58404725  0.56550045  0.61128055
   0.63986167  0.56542576  0.61017791
Direct configuration=    12
   0.74634986  0.64336727  0.64332476
   0.74399722  0.62053203  0.57689387
   0.74594339  0.57363018  0.62936171
   0.66207384  0.69668531  0.63628517
   0.56323722  0.69681917  0.63824542
   0.47883067  0.62092500  0.58151935
   0.47879940  0.57403489  0.63462683
   0.47917952  0.64376866  0.64857882
   0.56234094  0.52818748  0.60446455
   0.66117078  0.52804965  0.60252853
   0.72939909  0.61244572  0.61709696
   0.66915853  0.61239423  0.61902359
   0.64036278  0.65947770  0.62901326
   0.58454322  0.65954647  0.63011797
   0.55525165  0.61254894  0.62130890
   0.49498096  0.61280434  0.62169809
   0.58404725  0.56550045  0.61128055
   0.63986167  0.56542576  0.61017791
Direct configuration=    13
   0.74634986  0.64336727  0.64332476
   0.74399722  0.62053203  0.57569387
   0.74594339  0.57363018  0.62936171
   0.66207384  0.69668531  0.63628517
   0.56323722  0.69681917  0.63824542
   0.47883067  0.62092500  0.58151935
   0.47879940  0.57403489  0.63462683
   0.47917952  0.64376866  0.64857882
   0.56234094  0.52818748  0.60446455
   0.66117078  0.52804965  0.60252853
   0.72939909  0.61244572  0.61709696
   0.66915853  0.61239423  0.61902359
   0.64036278  0.65947770  0.62901326
   0.58454322  0.65954647  0.63011797
   0.55525165  0.61254894  0.62130890
   0.49498096  0.61280434  0.62169809
   0.58404725  0.56550045  0.61128055
   0.63986167  0.56542576  0.61017791
Direct configuration=    14
   0.74634986  0.64336727  0.64332476
   0.74399722  0.62053203  0.57629387
   0.74654339  0.57363018  0.62936171
   0.66207384  0.69668531  0.63628517
   0.56323722  0.69681917  0.63824542
   0.47883067  0.62092500  0.58151935
   0.47879940  0.57403489  0.63462683
   0.47917952  0.64376866  0.64857882
   0.56234094  0.52818748  0.60446455
   0.66117078  0.52804965  0.60252853
   0.72939909  0.61244572  0.61709696
   0.66915853  0.61239423  0.61902359
   0.64036278  0.65947770  0.62901326
   0.58454322  0.65954647  0.63011797
   0.55525165  0.61254894  0.62130890
   0.49498096  0.61280434  0.62169809
   0.58404725  0.56550045  0.61128055
   0.63986167  0.56542576  0.61017791
Direct configuration=    15
   0.74634986  0.64336727  0.64332476
   0.74399722  0.62053203  0.57629387
   0.74534339  0.57363018  0.62936171
   0.66207384  0.69668531  0.63628517
   0.56323722  0.69681917  0.63824542
   0.47883067  0.62092500  0.58151935
   0.47879940  0.57403489  0.63462683
   0.47917952  0.64376866  0.64857882
   0.56234094  0.52818748  0.60446455
   0.66117078  0.52804965  0.60252853
   0.72939909  0.61244572  0.61709696
   0.66915853  0.61239423  0.61902359
   0.64036278  0.65947770  0.62901326
   0.58454322  0.65954647  0.63011797
   0.55525165  0.61254894  0.62130890
   0.49498096  0.61280434  0.62169809
   0.58404725  0.56550045  0.61128055
   0.63986167  0.56542576  0.61017791
Direct configuration=    16
   0.74634986  0.64336727  0.64332476
   0.74399722  0.62053203  0.57629387
   0.74594339  0.57423018  0.62936171
   0.66207384  0.69668531  0.63628517
   0.56323722  0.69681917  0.63824542
   0.47883067  0.62092500  0.58151935
   0.47879940  0.57403489  0.63462683
   0.47917952  0.64376866  0.64857882
   0.56234094  0.52818748  0.60446455
   0.66117078  0.52804965  0.60252853
   0.72939909  0.61244572  0.61709696
   0.66915853  0.61239423  0.61902359
   0.64036278  0.65947770  0.62901326
   0.58454322  0.65954647  0.63011797
   0.55525165  0.61254894  0.62130890
   0.49498096  0.61280434  0.62169809
   0.58404725  0.56550045  0.61128055
   0.63986167  0.56542576  0.61017791
Direct configuration=    17
   0.74634986  0.64336727  0.64332476
   0.74399722  0.62053203  0.57629387
   0.74594339  0.57303018  0.62936171
   0.66207384  0.69668531  0.63628517
   0.56323722  0.69681917  0.63824542
   0.47883067  0.62092500  0.58151935
   0.47879940  0.57403489  0.63462683
   0.47917952  0.64376866  0.64857882
   0.56234094  0.52818748  0.60446455
   0.66117078  0.52804965  0.60252853
   0.72939909  0.61244572  0.61709696
   0.66915853  0.61239423  0.61902359
   0.64036278  0.65947770  0.62901326
   0.58454322  0.65954647  0.63011797
   0.55525165  0.61254894  0.62130890
   0.49498096  0.61280434  0.62169809
   0.58404725  0.56550045  0.61128055
   0.63986167  0.56542576  0.61017791
Direct configuration=    18
   0.74634986  0.64336727  0.64332476
   0.74399722  0.62053203  0.57629387
   0.74594339  0.57363018  0.62996171
   0.66207384  0.69668531  0.63628517
   0.56323722  0.69681917  0.63824542
   0.47883067  0.62092500  0.58151935
   0.47879940  0.57403489  0.63462683
   0.47917952  0.64376866  0.64857882
   0.56234094  0.52818748  0.60446455
   0.66117078  0.52804965  0.60252853
   0.72939909  0.61244572  0.61709696
   0.66915853  0.61239423  0.61902359
   0.64036278  0.65947770  0.62901326
   0.58454322  0.65954647  0.63011797
   0.55525165  0.61254894  0.62130890
   0.49498096  0.61280434  0.62169809
   0.58404725  0.56550045  0.61128055
   0.63986167  0.56542576  0.61017791
Direct configuration=    19
   0.74634986  0.64336727  0.64332476
   0.74399722  0.62053203  0.57629387
   0.74594339  0.57363018  0.62876171
   0.66207384  0.69668531  0.63628517
   0.56323722  0.69681917  0.63824542
   0.47883067  0.62092500  0.58151935
   0.47879940  0.57403489  0.63462683
   0.47917952  0.64376866  0.64857882
   0.56234094  0.52818748  0.60446455
   0.66117078  0.52804965  0.60252853
   0.72939909  0.61244572  0.61709696
   0.66915853  0.61239423  0.61902359
   0.64036278  0.65947770  0.62901326
   0.58454322  0.65954647  0.63011797
   0.55525165  0.61254894  0.62130890
   0.49498096  0.61280434  0.62169809
   0.58404725  0.56550045  0.61128055
   0.63986167  0.56542576  0.61017791
Direct configuration=    20
   0.74634986  0.64336727  0.64332476
   0.74399722  0.62053203  0.57629387
   0.74594339  0.57363018  0.62936171
   0.66267384  0.69668531  0.63628517
   0.56323722  0.69681917  0.63824542
   0.47883067  0.62092500  0.58151935
   0.47879940  0.57403489  0.63462683
   0.47917952  0.64376866  0.64857882
   0.56234094  0.52818748  0.60446455
   0.66117078  0.52804965  0.60252853
   0.72939909  0.61244572  0.61709696
   0.66915853  0.61239423  0.61902359
   0.64036278  0.65947770  0.62901326
   0.58454322  0.65954647  0.63011797
   0.55525165  0.61254894  0.62130890
   0.49498096  0.61280434  0.62169809
   0.58404725  0.56550045  0.61128055
   0.63986167  0.56542576  0.61017791
Direct configuration=    21
   0.74634986  0.64336727  0.64332476
   0.74399722  0.62053203  0.57629387
   0.74594339  0.57363018  0.62936171
   0.66147384  0.69668531  0.63628517
   0.56323722  0.69681917  0.63824542
   0.47883067  0.62092500  0.58151935
   0.47879940  0.57403489  0.63462683
   0.47917952  0.64376866  0.64857882
   0.56234094  0.52818748  0.60446455
   0.66117078  0.52804965  0.60252853
   0.72939909  0.61244572  0.61709696
   0.66915853  0.61239423  0.61902359
   0.64036278  0.65947770  0.62901326
   0.58454322  0.65954647  0.63011797
   0.55525165  0.61254894  0.62130890
   0.49498096  0.61280434  0.62169809
   0.58404725  0.56550045  0.61128055
   0.63986167  0.56542576  0.61017791
Direct configuration=    22
   0.74634986  0.64336727  0.64332476
   0.74399722  0.62053203  0.57629387
   0.74594339  0.57363018  0.62936171
   0.66207384  0.69728531  0.63628517
   0.56323722  0.69681917  0.63824542
   0.47883067  0.62092500  0.58151935
   0.47879940  0.57403489  0.63462683
   0.47917952  0.64376866  0.64857882
   0.56234094  0.52818748  0.60446455
   0.66117078  0.52804965  0.60252853
   0.72939909  0.61244572  0.61709696
   0.66915853  0.61239423  0.61902359
   0.64036278  0.65947770  0.62901326
   0.58454322  0.65954647  0.63011797
   0.55525165  0.61254894  0.62130890
   0.49498096  0.61280434  0.62169809
   0.58404725  0.56550045  0.61128055
   0.63986167  0.56542576  0.61017791
Direct configuration=    23
   0.74634986  0.64336727  0.64332476
   0.74399722  0.62053203  0.57629387
   0.74594339  0.57363018  0.62936171
   0.66207384  0.69608531  0.63628517
   0.56323722  0.69681917  0.63824542
   0.47883067  0.62092500  0.58151935
   0.47879940  0.57403489  0.63462683
   0.47917952  0.64376866  0.64857882
   0.56234094  0.52818748  0.60446455
   0.66117078  0.52804965  0.60252853
   0.72939909  0.61244572  0.61709696
   0.66915853  0.61239423  0.61902359
   0.64036278  0.65947770  0.62901326
   0.58454322  0.65954647  0.63011797
   0.55525165  0.61254894  0.62130890
   0.49498096  0.61280434  0.62169809
   0.58404725  0.56550045  0.61128055
   0.63986167  0.56542576  0.61017791
Direct configuration=    24
   0.74634986  0.64336727  0.64332476
   0.74399722  0.62053203  0.57629387
   0.74594339  0.57363018  0.62936171
   0.66207384  0.69668531  0.63688517
   0.56323722  0.69681917  0.63824542
   0.47883067  0.62092500  0.58151935
   0.47879940  0.57403489  0.63462683
   0.47917952  0.64376866  0.64857882
   0.56234094  0.52818748  0.60446455
   0.66117078  0.52804965  0.60252853
   0.72939909  0.61244572  0.61709696
   0.66915853  0.61239423  0.61902359
   0.64036278  0.65947770  0.62901326
   0.58454322  0.65954647  0.63011797
   0.55525165  0.61254894  0.62130890
   0.49498096  0.61280434  0.62169809
   0.58404725  0.56550045  0.61128055
   0.63986167  0.56542576  0.61017791
Direct configuration=    25
   0.74634986  0.64336727  0.64332476
   0.74399722  0.62053203  0.57629387
   0.74594339  0.57363018  0.62936171
   0.66207384  0.69668531  0.63568517
   0.56323722  0.69681917  0.63824542
   0.47883067  0.62092500  0.58151935
   0.47879940  0.57403489  0.63462683
   0.47917952  0.64376866  0.64857882
   0.56234094  0.52818748  0.60446455
   0.66117078  0.52804965  0.60252853
   0.72939909  0.61244572  0.61709696
   0.66915853  0.61239423  0.61902359
   0.64036278  0.65947770  0.62901326
   0.58454322  0.65954647  0.63011797
   0.55525165  0.61254894  0.62130890
   0.49498096  0.61280434  0.62169809
   0.58404725  0.56550045  0.61128055
   0.63986167  0.56542576  0.61017791
Direct configuration=    26
   0.74634986  0.64336727  0.64332476
   0.74399722  0.62053203  0.57629387
   0.74594339  0.57363018  0.62936171
   0.66207384  0.69668531  0.63628517
   0.56383722  0.69681917  0.63824542
   0.47883067  0.62092500  0.58151935
   0.47879940  0.57403489  0.63462683
   0.47917952  0.64376866  0.64857882
   0.56234094  0.52818748  0.60446455
   0.66117078  0.52804965  0.60252853
   0.72939909  0.61244572  0.61709696
   0.66915853  0.61239423  0.61902359
   0.64036278  0.65947770  0.62901326
   0.58454322  0.65954647  0.63011797
   0.55525165  0.61254894  0.62130890
   0.49498096  0.61280434  0.62169809
   0.58404725  0.56550045  0.61128055
   0.63986167  0.56542576  0.61017791
Direct configuration=    27
   0.74634986  0.64336727  0.64332476
   0.74399722  0.62053203  0.57629387
   0.74594339  0.57363018  0.62936171
   0.66207384  0.69668531  0.63628517
   0.56263722  0.69681917  0.63824542
   0.47883067  0.62092500  0.58151935
   0.47879940  0.57403489  0.63462683
   0.47917952  0.64376866  0.64857882
   0.56234094  0.52818748  0.60446455
   0.66117078  0.52804965  0.60252853
   0.72939909  0.61244572  0.61709696
   0.66915853  0.61239423  0.61902359
   0.64036278  0.65947770  0.62901326
   0.58454322  0.65954647  0.63011797
   0.55525165  0.61254894  0.62130890
   0.49498096  0.61280434  0.62169809
   0.58404725  0.56550045  0.61128055
   0.63986167  0.56542576  0.61017791
Direct configuration=    28
   0.74634986  0.64336727  0.64332476
   0.74399722  0.62053203  0.57629387
   0.74594339  0.57363018  0.62936171
   0.66207384  0.69668531  0.63628517
   0.56323722  0.69741917  0.63824542
   0.47883067  0.62092500  0.58151935
   0.47879940  0.57403489  0.63462683
   0.47917952  0.64376866  0.64857882
   0.56234094  0.52818748  0.60446455
   0.66117078  0.52804965  0.60252853
   0.72939909  0.61244572  0.61709696
   0.66915853  0.61239423  0.61902359
   0.64036278  0.65947770  0.62901326
   0.58454322  0.65954647  0.63011797
   0.55525165  0.61254894  0.62130890
   0.49498096  0.61280434  0.62169809
   0.58404725  0.56550045  0.61128055
   0.63986167  0.56542576  0.61017791
Direct configuration=    29
   0.74634986  0.64336727  0.64332476
   0.74399722  0.62053203  0.57629387
   0.74594339  0.57363018  0.62936171
   0.66207384  0.69668531  0.63628517
   0.56323722  0.69621917  0.63824542
   0.47883067  0.62092500  0.58151935
   0.47879940  0.57403489  0.63462683
   0.47917952  0.64376866  0.64857882
   0.56234094  0.52818748  0.60446455
   0.66117078  0.52804965  0.60252853
   0.72939909  0.61244572  0.61709696
   0.66915853  0.61239423  0.61902359
   0.64036278  0.65947770  0.62901326
   0.58454322  0.65954647  0.63011797
   0.55525165  0.61254894  0.62130890
   0.49498096  0.61280434  0.62169809
   0.58404725  0.56550045  0.61128055
   0.63986167  0.56542576  0.61017791
Direct configuration=    30
   0.74634986  0.64336727  0.64332476
   0.74399722  0.62053203  0.57629387
   0.74594339  0.57363018  0.62936171
   0.66207384  0.69668531  0.63628517
   0.56323722  0.69681917  0.63884542
   0.47883067  0.62092500  0.58151935
   0.47879940  0.57403489  0.63462683
   0.47917952  0.64376866  0.64857882
   0.56234094  0.52818748  0.60446455
   0.66117078  0.52804965  0.60252853
   0.72939909  0.61244572  0.61709696
   0.66915853  0.61239423  0.61902359
   0.64036278  0.65947770  0.62901326
   0.58454322  0.65954647  0.63011797
   0.55525165  0.61254894  0.62130890
   0.49498096  0.61280434  0.62169809
   0.58404725  0.56550045  0.61128055
   0.63986167  0.56542576  0.61017791
Direct configuration=    31
   0.74634986  0.64336727  0.64332476
   0.74399722  0.62053203  0.57629387
   0.74594339  0.57363018  0.62936171
   0.66207384  0.69668531  0.63628517
   0.56323722  0.69681917  0.63764542
   0.47883067  0.62092500  0.58151935
   0.47879940  0.57403489  0.63462683
   0.47917952  0.64376866  0.64857882
   0.56234094  0.52818748  0.60446455
   0.66117078  0.52804965  0.60252853
   0.72939909  0.61244572  0.61709696
   0.66915853  0.61239423  0.61902359
   0.64036278  0.65947770  0.62901326
   0.58454322  0.65954647  0.63011797
   0.55525165  0.61254894  0.62130890
   0.49498096  0.61280434  0.62169809
   0.58404725  0.56550045  0.61128055
   0.63986167  0.56542576  0.61017791
Direct configuration=    32
   0.74634986  0.64336727  0.64332476
   0.74399722  0.62053203  0.57629387
   0.74594339  0.57363018  0.62936171
   0.66207384  0.69668531  0.63628517
   0.56323722  0.69681917  0.63824542
   0.47943067  0.62092500  0.58151935
   0.47879940  0.57403489  0.63462683
   0.47917952  0.64376866  0.64857882
   0.56234094  0.52818748  0.60446455
   0.66117078  0.52804965  0.60252853
   0.72939909  0.61244572  0.61709696
   0.66915853  0.61239423  0.61902359
   0.64036278  0.65947770  0.62901326
   0.58454322  0.65954647  0.63011797
   0.55525165  0.61254894  0.62130890
   0.49498096  0.61280434  0.62169809
   0.58404725  0.56550045  0.61128055
   0.63986167  0.56542576  0.61017791
Direct configuration=    33
   0.74634986  0.64336727  0.64332476
   0.74399722  0.62053203  0.57629387
   0.74594339  0.57363018  0.62936171
   0.66207384  0.69668531  0.63628517
   0.56323722  0.69681917  0.63824542
   0.47823067  0.62092500  0.58151935
   0.47879940  0.57403489  0.63462683
   0.47917952  0.64376866  0.64857882
   0.56234094  0.52818748  0.60446455
   0.66117078  0.52804965  0.60252853
   0.72939909  0.61244572  0.61709696
   0.66915853  0.61239423  0.61902359
   0.64036278  0.65947770  0.62901326
   0.58454322  0.65954647  0.63011797
   0.55525165  0.61254894  0.62130890
   0.49498096  0.61280434  0.62169809
   0.58404725  0.56550045  0.61128055
   0.63986167  0.56542576  0.61017791
Direct configuration=    34
   0.74634986  0.64336727  0.64332476
   0.74399722  0.62053203  0.57629387
   0.74594339  0.57363018  0.62936171
   0.66207384  0.69668531  0.63628517
   0.56323722  0.69681917  0.63824542
   0.47883067  0.62152500  0.58151935
   0.47879940  0.57403489  0.63462683
   0.47917952  0.64376866  0.64857882
   0.56234094  0.52818748  0.60446455
   0.66117078  0.52804965  0.60252853
   0.72939909  0.61244572  0.61709696
   0.66915853  0.61239423  0.61902359
   0.64036278  0.65947770  0.62901326
   0.58454322  0.65954647  0.63011797
   0.55525165  0.61254894  0.62130890
   0.49498096  0.61280434  0.62169809
   0.58404725  0.56550045  0.61128055
   0.63986167  0.56542576  0.61017791
Direct configuration=    35
   0.74634986  0.64336727  0.64332476
   0.74399722  0.62053203  0.57629387
   0.74594339  0.57363018  0.62936171
   0.66207384  0.69668531  0.63628517
   0.56323722  0.69681917  0.63824542
   0.47883067  0.62032500  0.58151935
   0.47879940  0.57403489  0.63462683
   0.47917952  0.64376866  0.64857882
   0.56234094  0.52818748  0.60446455
   0.66117078  0.52804965  0.60252853
   0.72939909  0.61244572  0.61709696
   0.66915853  0.61239423  0.61902359
   0.64036278  0.65947770  0.62901326
   0.58454322  0.65954647  0.63011797
   0.55525165  0.61254894  0.62130890
   0.49498096  0.61280434  0.62169809
   0.58404725  0.56550045  0.61128055
   0.63986167  0.56542576  0.61017791
Direct configuration=    36
   0.74634986  0.64336727  0.64332476
   0.74399722  0.62053203  0.57629387
   0.74594339  0.57363018  0.62936171
   0.66207384  0.69668531  0.63628517
   0.56323722  0.69681917  0.63824542
   0.47883067  0.62092500  0.58211935
   0.47879940  0.57403489  0.63462683
   0.47917952  0.64376866  0.64857882
   0.56234094  0.52818748  0.60446455
   0.66117078  0.52804965  0.60252853
   0.72939909  0.61244572  0.61709696
   0.66915853  0.61239423  0.61902359
   0.64036278  0.65947770  0.62901326
   0.58454322  0.65954647  0.63011797
   0.55525165  0.61254894  0.62130890
   0.49498096  0.61280434  0.62169809
   0.58404725  0.56550045  0.61128055
   0.63986167  0.56542576  0.61017791
Direct configuration=    37
   0.74634986  0.64336727  0.64332476
   0.74399722  0.62053203  0.57629387
   0.74594339  0.57363018  0.62936171
   0.66207384  0.69668531  0.63628517
   0.56323722  0.69681917  0.63824542
   0.47883067  0.62092500  0.58091935
   0.47879940  0.57403489  0.63462683
   0.47917952  0.64376866  0.64857882
   0.56234094  0.52818748  0.60446455
   0.66117078  0.52804965  0.60252853
   0.72939909  0.61244572  0.61709696
   0.66915853  0.61239423  0.61902359
   0.64036278  0.65947770  0.62901326
   0.58454322  0.65954647  0.63011797
   0.55525165  0.61254894  0.62130890
   0.49498096  0.61280434  0.62169809
   0.58404725  0.56550045  0.61128055
   0.63986167  0.56542576  0.61017791
Direct configuration=    38
   0.74634986  0.64336727  0.64332476
   0.74399722  0.62053203  0.57629387
   0.74594339  0.57363018  0.62936171
   0.66207384  0.69668531  0.63628517
   0.56323722  0.69681917  0.63824542
   0.47883067  0.62092500  0.58151935
   0.47939940  0.57403489  0.63462683
   0.47917952  0.64376866  0.64857882
   0.56234094  0.52818748  0.60446455
   0.66117078  0.52804965  0.60252853
   0.72939909  0.61244572  0.61709696
   0.66915853  0.61239423  0.61902359
   0.64036278  0.65947770  0.62901326
   0.58454322  0.65954647  0.63011797
   0.55525165  0.61254894  0.62130890
   0.49498096  0.61280434  0.62169809
   0.58404725  0.56550045  0.61128055
   0.63986167  0.56542576  0.61017791
Direct configuration=    39
   0.74634986  0.64336727  0.64332476
   0.74399722  0.62053203  0.57629387
   0.74594339  0.57363018  0.62936171
   0.66207384  0.69668531  0.63628517
   0.56323722  0.69681917  0.63824542
   0.47883067  0.62092500  0.58151935
   0.47819940  0.57403489  0.63462683
   0.47917952  0.64376866  0.64857882
   0.56234094  0.52818748  0.60446455
   0.66117078  0.52804965  0.60252853
   0.72939909  0.61244572  0.61709696
   0.66915853  0.61239423  0.61902359
   0.64036278  0.65947770  0.62901326
   0.58454322  0.65954647  0.63011797
   0.55525165  0.61254894  0.62130890
   0.49498096  0.61280434  0.62169809
   0.58404725  0.56550045  0.61128055
   0.63986167  0.56542576  0.61017791
Direct configuration=    40
   0.74634986  0.64336727  0.64332476
   0.74399722  0.62053203  0.57629387
   0.74594339  0.57363018  0.62936171
   0.66207384  0.69668531  0.63628517
   0.56323722  0.69681917  0.63824542
   0.47883067  0.62092500  0.58151935
   0.47879940  0.57463489  0.63462683
   0.47917952  0.64376866  0.64857882
   0.56234094  0.52818748  0.60446455
   0.66117078  0.52804965  0.60252853
   0.72939909  0.61244572  0.61709696
   0.66915853  0.61239423  0.61902359
   0.64036278  0.65947770  0.62901326
   0.58454322  0.65954647  0.63011797
   0.55525165  0.61254894  0.62130890
   0.49498096  0.61280434  0.62169809
   0.58404725  0.56550045  0.61128055
   0.63986167  0.56542576  0.61017791
Direct configuration=    41
   0.74634986  0.64336727  0.64332476
   0.74399722  0.62053203  0.57629387
   0.74594339  0.57363018  0.62936171
   0.66207384  0.69668531  0.63628517
   0.56323722  0.69681917  0.63824542
   0.47883067  0.62092500  0.58151935
   0.47879940  0.57343489  0.63462683
   0.47917952  0.64376866  0.64857882
   0.56234094  0.52818748  0.60446455
   0.66117078  0.52804965  0.60252853
   0.72939909  0.61244572  0.61709696
   0.66915853  0.61239423  0.61902359
   0.64036278  0.65947770  0.62901326
   0.58454322  0.65954647  0.63011797
   0.55525165  0.61254894  0.62130890
   0.49498096  0.61280434  0.62169809
   0.58404725  0.56550045  0.61128055
   0.63986167  0.56542576  0.61017791
Direct configuration=    42
   0.74634986  0.64336727  0.64332476
   0.74399722  0.62053203  0.57629387
   0.74594339  0.57363018  0.62936171
   0.66207384  0.69668531  0.63628517
   0.56323722  0.69681917  0.63824542
   0.47883067  0.62092500  0.58151935
   0.47879940  0.57403489  0.63522683
   0.47917952  0.64376866  0.64857882
   0.56234094  0.52818748  0.60446455
   0.66117078  0.52804965  0.60252853
   0.72939909  0.61244572  0.61709696
   0.66915853  0.61239423  0.61902359
   0.64036278  0.65947770  0.62901326
   0.58454322  0.65954647  0.63011797
   0.55525165  0.61254894  0.62130890
   0.49498096  0.61280434  0.62169809
   0.58404725  0.56550045  0.61128055
   0.63986167  0.56542576  0.61017791
Direct configuration=    43
   0.74634986  0.64336727  0.64332476
   0.74399722  0.62053203  0.57629387
   0.74594339  0.57363018  0.62936171
   0.66207384  0.69668531  0.63628517
   0.56323722  0.69681917  0.63824542
   0.47883067  0.62092500  0.58151935
   0.47879940  0.57403489  0.63402683
   0.47917952  0.64376866  0.64857882
   0.56234094  0.52818748  0.60446455
   0.66117078  0.52804965  0.60252853
   0.72939909  0.61244572  0.61709696
   0.66915853  0.61239423  0.61902359
   0.64036278  0.65947770  0.62901326
   0.58454322  0.65954647  0.63011797
   0.55525165  0.61254894  0.62130890
   0.49498096  0.61280434  0.62169809
   0.58404725  0.56550045  0.61128055
   0.63986167  0.56542576  0.61017791
Direct configuration=    44
   0.74634986  0.64336727  0.64332476
   0.74399722  0.62053203  0.57629387
   0.74594339  0.57363018  0.62936171
   0.66207384  0.69668531  0.63628517
   0.56323722  0.69681917  0.63824542
   0.47883067  0.62092500  0.58151935
   0.47879940  0.57403489  0.63462683
   0.47977952  0.64376866  0.64857882
   0.56234094  0.52818748  0.60446455
   0.66117078  0.52804965  0.60252853
   0.72939909  0.61244572  0.61709696
   0.66915853  0.61239423  0.61902359
   0.64036278  0.65947770  0.62901326
   0.58454322  0.65954647  0.63011797
   0.55525165  0.61254894  0.62130890
   0.49498096  0.61280434  0.62169809
   0.58404725  0.56550045  0.61128055
   0.63986167  0.56542576  0.61017791
Direct configuration=    45
   0.74634986  0.64336727  0.64332476
   0.74399722  0.62053203  0.57629387
   0.74594339  0.57363018  0.62936171
   0.66207384  0.69668531  0.63628517
   0.56323722  0.69681917  0.63824542
   0.47883067  0.62092500  0.58151935
   0.47879940  0.57403489  0.63462683
   0.47857952  0.64376866  0.64857882
   0.56234094  0.52818748  0.60446455
   0.66117078  0.52804965  0.60252853
   0.72939909  0.61244572  0.61709696
   0.66915853  0.61239423  0.61902359
   0.64036278  0.65947770  0.62901326
   0.58454322  0.65954647  0.63011797
   0.55525165  0.61254894  0.62130890
   0.49498096  0.61280434  0.62169809
   0.58404725  0.56550045  0.61128055
   0.63986167  0.56542576  0.61017791
Direct configuration=    46
   0.74634986  0.64336727  0.64332476
   0.74399722  0.62053203  0.57629387
   0.74594339  0.57363018  0.62936171
   0.66207384  0.69668531  0.63628517
   0.56323722  0.69681917  0.63824542
   0.47883067  0.62092500  0.58151935
   0.47879940  0.57403489  0.63462683
   0.47917952  0.64436866  0.64857882
   0.56234094  0.52818748  0.60446455
   0.66117078  0.52804965  0.60252853
   0.72939909  0.61244572  0.61709696
   0.66915853  0.61239423  0.61902359
   0.64036278  0.65947770  0.62901326
   0.58454322  0.65954647  0.63011797
   0.55525165  0.61254894  0.62130890
   0.49498096  0.61280434  0.62169809
   0.58404725  0.56550045  0.61128055
   0.63986167  0.56542576  0.61017791
Direct configuration=    47
   0.74634986  0.64336727  0.64332476
   0.74399722  0.62053203  0.57629387
   0.74594339  0.57363018  0.62936171
   0.66207384  0.69668531  0.63628517
   0.56323722  0.69681917  0.63824542
   0.47883067  0.62092500  0.58151935
   0.47879940  0.57403489  0.63462683
   0.47917952  0.64316866  0.64857882
   0.56234094  0.52818748  0.60446455
   0.66117078  0.52804965  0.60252853
   0.72939909  0.61244572  0.61709696
   0.66915853  0.61239423  0.61902359
   0.64036278  0.65947770  0.62901326
   0.58454322  0.65954647  0.63011797
   0.55525165  0.61254894  0.62130890
   0.49498096  0.61280434  0.62169809
   0.58404725  0.56550045  0.61128055
   0.63986167  0.56542576  0.61017791
Direct configuration=    48
   0.74634986  0.64336727  0.64332476
   0.74399722  0.62053203  0.57629387
   0.74594339  0.57363018  0.62936171
   0.66207384  0.69668531  0.63628517
   0.56323722  0.69681917  0.63824542
   0.47883067  0.62092500  0.58151935
   0.47879940  0.57403489  0.63462683
   0.47917952  0.64376866  0.64917882
   0.56234094  0.52818748  0.60446455
   0.66117078  0.52804965  0.60252853
   0.72939909  0.61244572  0.61709696
   0.66915853  0.61239423  0.61902359
   0.64036278  0.65947770  0.62901326
   0.58454322  0.65954647  0.63011797
   0.55525165  0.61254894  0.62130890
   0.49498096  0.61280434  0.62169809
   0.58404725  0.56550045  0.61128055
   0.63986167  0.56542576  0.61017791
Direct configuration=    49
   0.74634986  0.64336727  0.64332476
   0.74399722  0.62053203  0.57629387
   0.74594339  0.57363018  0.62936171
   0.66207384  0.69668531  0.63628517
   0.56323722  0.69681917  0.63824542
   0.47883067  0.62092500  0.58151935
   0.47879940  0.57403489  0.63462683
   0.47917952  0.64376866  0.64797882
   0.56234094  0.52818748  0.60446455
   0.66117078  0.52804965  0.60252853
   0.72939909  0.61244572  0.61709696
   0.66915853  0.61239423  0.61902359
   0.64036278  0.65947770  0.62901326
   0.58454322  0.65954647  0.63011797
   0.55525165  0.61254894  0.62130890
   0.49498096  0.61280434  0.62169809
   0.58404725  0.56550045  0.61128055
   0.63986167  0.56542576  0.61017791
Direct configuration=    50
   0.74634986  0.64336727  0.64332476
   0.74399722  0.62053203  0.57629387
   0.74594339  0.57363018  0.62936171
   0.66207384  0.69668531  0.63628517
   0.56323722  0.69681917  0.63824542
   0.47883067  0.62092500  0.58151935
   0.47879940  0.57403489  0.63462683
   0.47917952  0.64376866  0.64857882
   0.56294094  0.52818748  0.60446455
   0.66117078  0.52804965  0.60252853
   0.72939909  0.61244572  0.61709696
   0.66915853  0.61239423  0.61902359
   0.64036278  0.65947770  0.62901326
   0.58454322  0.65954647  0.63011797
   0.55525165  0.61254894  0.62130890
   0.49498096  0.61280434  0.62169809
   0.58404725  0.56550045  0.61128055
   0.63986167  0.56542576  0.61017791
Direct configuration=    51
   0.74634986  0.64336727  0.64332476
   0.74399722  0.62053203  0.57629387
   0.74594339  0.57363018  0.62936171
   0.66207384  0.69668531  0.63628517
   0.56323722  0.69681917  0.63824542
   0.47883067  0.62092500  0.58151935
   0.47879940  0.57403489  0.63462683
   0.47917952  0.64376866  0.64857882
   0.56174094  0.52818748  0.60446455
   0.66117078  0.52804965  0.60252853
   0.72939909  0.61244572  0.61709696
   0.66915853  0.61239423  0.61902359
   0.64036278  0.65947770  0.62901326
   0.58454322  0.65954647  0.63011797
   0.55525165  0.61254894  0.62130890
   0.49498096  0.61280434  0.62169809
   0.58404725  0.56550045  0.61128055
   0.63986167  0.56542576  0.61017791
Direct configuration=    52
   0.74634986  0.64336727  0.64332476
   0.74399722  0.62053203  0.57629387
   0.74594339  0.57363018  0.62936171
   0.66207384  0.69668531  0.63628517
   0.56323722  0.69681917  0.63824542
   0.47883067  0.62092500  0.58151935
   0.47879940  0.57403489  0.63462683
   0.47917952  0.64376866  0.64857882
   0.56234094  0.52878748  0.60446455
   0.66117078  0.52804965  0.60252853
   0.72939909  0.61244572  0.61709696
   0.66915853  0.61239423  0.61902359
   0.64036278  0.65947770  0.62901326
   0.58454322  0.65954647  0.63011797
   0.55525165  0.61254894  0.62130890
   0.49498096  0.61280434  0.62169809
   0.58404725  0.56550045  0.61128055
   0.63986167  0.56542576  0.61017791
Direct configuration=    53
   0.74634986  0.64336727  0.64332476
   0.74399722  0.62053203  0.57629387
   0.74594339  0.57363018  0.62936171
   0.66207384  0.69668531  0.63628517
   0.56323722  0.69681917  0.63824542
   0.47883067  0.62092500  0.58151935
   0.47879940  0.57403489  0.63462683
   0.47917952  0.64376866  0.64857882
   0.56234094  0.52758748  0.60446455
   0.66117078  0.52804965  0.60252853
   0.72939909  0.61244572  0.61709696
   0.66915853  0.61239423  0.61902359
   0.64036278  0.65947770  0.62901326
   0.58454322  0.65954647  0.63011797
   0.55525165  0.61254894  0.62130890
   0.49498096  0.61280434  0.62169809
   0.58404725  0.56550045  0.61128055
   0.63986167  0.56542576  0.61017791
Direct configuration=    54
   0.74634986  0.64336727  0.64332476
   0.74399722  0.62053203  0.57629387
   0.74594339  0.57363018  0.62936171
   0.66207384  0.69668531  0.63628517
   0.56323722  0.69681917  0.63824542
   0.47883067  0.62092500  0.58151935
   0.47879940  0.57403489  0.63462683
   0.47917952  0.64376866  0.64857882
   0.56234094  0.52818748  0.60506455
   0.66117078  0.52804965  0.60252853
   0.72939909  0.61244572  0.61709696
   0.66915853  0.61239423  0.61902359
   0.64036278  0.65947770  0.62901326
   0.58454322  0.65954647  0.63011797
   0.55525165  0.61254894  0.62130890
   0.49498096  0.61280434  0.62169809
   0.58404725  0.56550045  0.61128055
   0.63986167  0.56542576  0.61017791
Direct configuration=    55
   0.74634986  0.64336727  0.64332476
   0.74399722  0.62053203  0.57629387
   0.74594339  0.57363018  0.62936171
   0.66207384  0.69668531  0.63628517
   0.56323722  0.69681917  0.63824542
   0.47883067  0.62092500  0.58151935
   0.47879940  0.57403489  0.63462683
   0.47917952  0.64376866  0.64857882
   0.56234094  0.52818748  0.60386455
   0.66117078  0.52804965  0.60252853
   0.72939909  0.61244572  0.61709696
   0.66915853  0.61239423  0.61902359
   0.64036278  0.65947770  0.62901326
   0.58454322  0.65954647  0.63011797
   0.55525165  0.61254894  0.62130890
   0.49498096  0.61280434  0.62169809
   0.58404725  0.56550045  0.61128055
   0.63986167  0.56542576  0.61017791
Direct configuration=    56
   0.74634986  0.64336727  0.64332476
   0.74399722  0.62053203  0.57629387
   0.74594339  0.57363018  0.62936171
   0.66207384  0.69668531  0.63628517
   0.56323722  0.69681917  0.63824542
   0.47883067  0.62092500  0.58151935
   0.47879940  0.57403489  0.63462683
   0.47917952  0.64376866  0.64857882
   0.56234094  0.52818748  0.60446455
   0.66177078  0.52804965  0.60252853
   0.72939909  0.61244572  0.61709696
   0.66915853  0.61239423  0.61902359
   0.64036278  0.65947770  0.62901326
   0.58454322  0.65954647  0.63011797
   0.55525165  0.61254894  0.62130890
   0.49498096  0.61280434  0.62169809
   0.58404725  0.56550045  0.61128055
   0.63986167  0.56542576  0.61017791
Direct configuration=    57
   0.74634986  0.64336727  0.64332476
   0.74399722  0.62053203  0.57629387
   0.74594339  0.57363018  0.62936171
   0.66207384  0.69668531  0.63628517
   0.56323722  0.69681917  0.63824542
   0.47883067  0.62092500  0.58151935
   0.47879940  0.57403489  0.63462683
   0.47917952  0.64376866  0.64857882
   0.56234094  0.52818748  0.60446455
   0.66057078  0.52804965  0.60252853
   0.72939909  0.61244572  0.61709696
   0.66915853  0.61239423  0.61902359
   0.64036278  0.65947770  0.62901326
   0.58454322  0.65954647  0.63011797
   0.55525165  0.61254894  0.62130890
   0.49498096  0.61280434  0.62169809
   0.58404725  0.56550045  0.61128055
   0.63986167  0.56542576  0.61017791
Direct configuration=    58
   0.74634986  0.64336727  0.64332476
   0.74399722  0.62053203  0.57629387
   0.74594339  0.57363018  0.62936171
   0.66207384  0.69668531  0.63628517
   0.56323722  0.69681917  0.63824542
   0.47883067  0.62092500  0.58151935
   0.47879940  0.57403489  0.63462683
   0.47917952  0.64376866  0.64857882
   0.56234094  0.52818748  0.60446455
   0.66117078  0.52864965  0.60252853
   0.72939909  0.61244572  0.61709696
   0.66915853  0.61239423  0.61902359
   0.64036278  0.65947770  0.62901326
   0.58454322  0.65954647  0.63011797
   0.55525165  0.61254894  0.62130890
   0.49498096  0.61280434  0.62169809
   0.58404725  0.56550045  0.61128055
   0.63986167  0.56542576  0.61017791
Direct configuration=    59
   0.74634986  0.64336727  0.64332476
   0.74399722  0.62053203  0.57629387
   0.74594339  0.57363018  0.62936171
   0.66207384  0.69668531  0.63628517
   0.56323722  0.69681917  0.63824542
   0.47883067  0.62092500  0.58151935
   0.47879940  0.57403489  0.63462683
   0.47917952  0.64376866  0.64857882
   0.56234094  0.52818748  0.60446455
   0.66117078  0.52744965  0.60252853
   0.72939909  0.61244572  0.61709696
   0.66915853  0.61239423  0.61902359
   0.64036278  0.65947770  0.62901326
   0.58454322  0.65954647  0.63011797
   0.55525165  0.61254894  0.62130890
   0.49498096  0.61280434  0.62169809
   0.58404725  0.56550045  0.61128055
   0.63986167  0.56542576  0.61017791
Direct configuration=    60
   0.74634986  0.64336727  0.64332476
   0.74399722  0.62053203  0.57629387
   0.74594339  0.57363018  0.62936171
   0.66207384  0.69668531  0.63628517
   0.56323722  0.69681917  0.63824542
   0.47883067  0.62092500  0.58151935
   0.47879940  0.57403489  0.63462683
   0.47917952  0.64376866  0.64857882
   0.56234094  0.52818748  0.60446455
   0.66117078  0.52804965  0.60312853
   0.72939909  0.61244572  0.61709696
   0.66915853  0.61239423  0.61902359
   0.64036278  0.65947770  0.62901326
   0.58454322  0.65954647  0.63011797
   0.55525165  0.61254894  0.62130890
   0.49498096  0.61280434  0.62169809
   0.58404725  0.56550045  0.61128055
   0.63986167  0.56542576  0.61017791
Direct configuration=    61
   0.74634986  0.64336727  0.64332476
   0.74399722  0.62053203  0.57629387
   0.74594339  0.57363018  0.62936171
   0.66207384  0.69668531  0.63628517
   0.56323722  0.69681917  0.63824542
   0.47883067  0.62092500  0.58151935
   0.47879940  0.57403489  0.63462683
   0.47917952  0.64376866  0.64857882
   0.56234094  0.52818748  0.60446455
   0.66117078  0.52804965  0.60192853
   0.72939909  0.61244572  0.61709696
   0.66915853  0.61239423  0.61902359
   0.64036278  0.65947770  0.62901326
   0.58454322  0.65954647  0.63011797
   0.55525165  0.61254894  0.62130890
   0.49498096  0.61280434  0.62169809
   0.58404725  0.56550045  0.61128055
   0.63986167  0.56542576  0.61017791
Direct configuration=    62
   0.74634986  0.64336727  0.64332476
   0.74399722  0.62053203  0.57629387
   0.74594339  0.57363018  0.62936171
   0.66207384  0.69668531  0.63628517
   0.56323722  0.69681917  0.63824542
   0.47883067  0.62092500  0.58151935
   0.47879940  0.57403489  0.63462683
   0.47917952  0.64376866  0.64857882
   0.56234094  0.52818748  0.60446455
   0.66117078  0.52804965  0.60252853
   0.72999909  0.61244572  0.61709696
   0.66915853  0.61239423  0.61902359
   0.64036278  0.65947770  0.62901326
   0.58454322  0.65954647  0.63011797
   0.55525165  0.61254894  0.62130890
   0.49498096  0.61280434  0.62169809
   0.58404725  0.56550045  0.61128055
   0.63986167  0.56542576  0.61017791
Direct configuration=    63
   0.74634986  0.64336727  0.64332476
   0.74399722  0.62053203  0.57629387
   0.74594339  0.57363018  0.62936171
   0.66207384  0.69668531  0.63628517
   0.56323722  0.69681917  0.63824542
   0.47883067  0.62092500  0.58151935
   0.47879940  0.57403489  0.63462683
   0.47917952  0.64376866  0.64857882
   0.56234094  0.52818748  0.60446455
   0.66117078  0.52804965  0.60252853
   0.72879909  0.61244572  0.61709696
   0.66915853  0.61239423  0.61902359
   0.64036278  0.65947770  0.62901326
   0.58454322  0.65954647  0.63011797
   0.55525165  0.61254894  0.62130890
   0.49498096  0.61280434  0.62169809
   0.58404725  0.56550045  0.61128055
   0.63986167  0.56542576  0.61017791
Direct configuration=    64
   0.74634986  0.64336727  0.64332476
   0.74399722  0.62053203  0.57629387
   0.74594339  0.57363018  0.62936171
   0.66207384  0.69668531  0.63628517
   0.56323722  0.69681917  0.63824542
   0.47883067  0.62092500  0.58151935
   0.47879940  0.57403489  0.63462683
   0.47917952  0.64376866  0.64857882
   0.56234094  0.52818748  0.60446455
   0.66117078  0.52804965  0.60252853
   0.72939909  0.61304572  0.61709696
   0.66915853  0.61239423  0.61902359
   0.64036278  0.65947770  0.62901326
   0.58454322  0.65954647  0.63011797
   0.55525165  0.61254894  0.62130890
   0.49498096  0.61280434  0.62169809
   0.58404725  0.56550045  0.61128055
   0.63986167  0.56542576  0.61017791
Direct configuration=    65
   0.74634986  0.64336727  0.64332476
   0.74399722  0.62053203  0.57629387
   0.74594339  0.57363018  0.62936171
   0.66207384  0.69668531  0.63628517
   0.56323722  0.69681917  0.63824542
   0.47883067  0.62092500  0.58151935
   0.47879940  0.57403489  0.63462683
   0.47917952  0.64376866  0.64857882
   0.56234094  0.52818748  0.60446455
   0.66117078  0.52804965  0.60252853
   0.72939909  0.61184572  0.61709696
   0.66915853  0.61239423  0.61902359
   0.64036278  0.65947770  0.62901326
   0.58454322  0.65954647  0.63011797
   0.55525165  0.61254894  0.62130890
   0.49498096  0.61280434  0.62169809
   0.58404725  0.56550045  0.61128055
   0.63986167  0.56542576  0.61017791
Direct configuration=    66
   0.74634986  0.64336727  0.64332476
   0.74399722  0.62053203  0.57629387
   0.74594339  0.57363018  0.62936171
   0.66207384  0.69668531  0.63628517
   0.56323722  0.69681917  0.63824542
   0.47883067  0.62092500  0.58151935
   0.47879940  0.57403489  0.63462683
   0.47917952  0.64376866  0.64857882
   0.56234094  0.52818748  0.60446455
   0.66117078  0.52804965  0.60252853
   0.72939909  0.61244572  0.61769696
   0.66915853  0.61239423  0.61902359
   0.64036278  0.65947770  0.62901326
   0.58454322  0.65954647  0.63011797
   0.55525165  0.61254894  0.62130890
   0.49498096  0.61280434  0.62169809
   0.58404725  0.56550045  0.61128055
   0.63986167  0.56542576  0.61017791
Direct configuration=    67
   0.74634986  0.64336727  0.64332476
   0.74399722  0.62053203  0.57629387
   0.74594339  0.57363018  0.62936171
   0.66207384  0.69668531  0.63628517
   0.56323722  0.69681917  0.63824542
   0.47883067  0.62092500  0.58151935
   0.47879940  0.57403489  0.63462683
   0.47917952  0.64376866  0.64857882
   0.56234094  0.52818748  0.60446455
   0.66117078  0.52804965  0.60252853
   0.72939909  0.61244572  0.61649696
   0.66915853  0.61239423  0.61902359
   0.64036278  0.65947770  0.62901326
   0.58454322  0.65954647  0.63011797
   0.55525165  0.61254894  0.62130890
   0.49498096  0.61280434  0.62169809
   0.58404725  0.56550045  0.61128055
   0.63986167  0.56542576  0.61017791
Direct configuration=    68
   0.74634986  0.64336727  0.64332476
   0.74399722  0.62053203  0.57629387
   0.74594339  0.57363018  0.62936171
   0.66207384  0.69668531  0.63628517
   0.56323722  0.69681917  0.63824542
   0.47883067  0.62092500  0.58151935
   0.47879940  0.57403489  0.63462683
   0.47917952  0.64376866  0.64857882
   0.56234094  0.52818748  0.60446455
   0.66117078  0.52804965  0.60252853
   0.72939909  0.61244572  0.61709696
   0.66975853  0.61239423  0.61902359
   0.64036278  0.65947770  0.62901326
   0.58454322  0.65954647  0.63011797
   0.55525165  0.61254894  0.62130890
   0.49498096  0.61280434  0.62169809
   0.58404725  0.56550045  0.61128055
   0.63986167  0.56542576  0.61017791
Direct configuration=    69
   0.74634986  0.64336727  0.64332476
   0.74399722  0.62053203  0.57629387
   0.74594339  0.57363018  0.62936171
   0.66207384  0.69668531  0.63628517
   0.56323722  0.69681917  0.63824542
   0.47883067  0.62092500  0.58151935
   0.47879940  0.57403489  0.63462683
   0.47917952  0.64376866  0.64857882
   0.56234094  0.52818748  0.60446455
   0.66117078  0.52804965  0.60252853
   0.72939909  0.61244572  0.61709696
   0.66855853  0.61239423  0.61902359
   0.64036278  0.65947770  0.62901326
   0.58454322  0.65954647  0.63011797
   0.55525165  0.61254894  0.62130890
   0.49498096  0.61280434  0.62169809
   0.58404725  0.56550045  0.61128055
   0.63986167  0.56542576  0.61017791
Direct configuration=    70
   0.74634986  0.64336727  0.64332476
   0.74399722  0.62053203  0.57629387
   0.74594339  0.57363018  0.62936171
   0.66207384  0.69668531  0.63628517
   0.56323722  0.69681917  0.63824542
   0.47883067  0.62092500  0.58151935
   0.47879940  0.57403489  0.63462683
   0.47917952  0.64376866  0.64857882
   0.56234094  0.52818748  0.60446455
   0.66117078  0.52804965  0.60252853
   0.72939909  0.61244572  0.61709696
   0.66915853  0.61299423  0.61902359
   0.64036278  0.65947770  0.62901326
   0.58454322  0.65954647  0.63011797
   0.55525165  0.61254894  0.62130890
   0.49498096  0.61280434  0.62169809
   0.58404725  0.56550045  0.61128055
   0.63986167  0.56542576  0.61017791
Direct configuration=    71
   0.74634986  0.64336727  0.64332476
   0.74399722  0.62053203  0.57629387
   0.74594339  0.57363018  0.62936171
   0.66207384  0.69668531  0.63628517
   0.56323722  0.69681917  0.63824542
   0.47883067  0.62092500  0.58151935
   0.47879940  0.57403489  0.63462683
   0.47917952  0.64376866  0.64857882
   0.56234094  0.52818748  0.60446455
   0.66117078  0.52804965  0.60252853
   0.72939909  0.61244572  0.61709696
   0.66915853  0.61179423  0.61902359
   0.64036278  0.65947770  0.62901326
   0.58454322  0.65954647  0.63011797
   0.55525165  0.61254894  0.62130890
   0.49498096  0.61280434  0.62169809
   0.58404725  0.56550045  0.61128055
   0.63986167  0.56542576  0.61017791
Direct configuration=    72
   0.74634986  0.64336727  0.64332476
   0.74399722  0.62053203  0.57629387
   0.74594339  0.57363018  0.62936171
   0.66207384  0.69668531  0.63628517
   0.56323722  0.69681917  0.63824542
   0.47883067  0.62092500  0.58151935
   0.47879940  0.57403489  0.63462683
   0.47917952  0.64376866  0.64857882
   0.56234094  0.52818748  0.60446455
   0.66117078  0.52804965  0.60252853
   0.72939909  0.61244572  0.61709696
   0.66915853  0.61239423  0.61962359
   0.64036278  0.65947770  0.62901326
   0.58454322  0.65954647  0.63011797
   0.55525165  0.61254894  0.62130890
   0.49498096  0.61280434  0.62169809
   0.58404725  0.56550045  0.61128055
   0.63986167  0.56542576  0.61017791
Direct configuration=    73
   0.74634986  0.64336727  0.64332476
   0.74399722  0.62053203  0.57629387
   0.74594339  0.57363018  0.62936171
   0.66207384  0.69668531  0.63628517
   0.56323722  0.69681917  0.63824542
   0.47883067  0.62092500  0.58151935
   0.47879940  0.57403489  0.63462683
   0.47917952  0.64376866  0.64857882
   0.56234094  0.52818748  0.60446455
   0.66117078  0.52804965  0.60252853
   0.72939909  0.61244572  0.61709696
   0.66915853  0.61239423  0.61842359
   0.64036278  0.65947770  0.62901326
   0.58454322  0.65954647  0.63011797
   0.55525165  0.61254894  0.62130890
   0.49498096  0.61280434  0.62169809
   0.58404725  0.56550045  0.61128055
   0.63986167  0.56542576  0.61017791
Direct configuration=    74
   0.74634986  0.64336727  0.64332476
   0.74399722  0.62053203  0.57629387
   0.74594339  0.57363018  0.62936171
   0.66207384  0.69668531  0.63628517
   0.56323722  0.69681917  0.63824542
   0.47883067  0.62092500  0.58151935
   0.47879940  0.57403489  0.63462683
   0.47917952  0.64376866  0.64857882
   0.56234094  0.52818748  0.60446455
   0.66117078  0.52804965  0.60252853
   0.72939909  0.61244572  0.61709696
   0.66915853  0.61239423  0.61902359
   0.64096278  0.65947770  0.62901326
   0.58454322  0.65954647  0.63011797
   0.55525165  0.61254894  0.62130890
   0.49498096  0.61280434  0.62169809
   0.58404725  0.56550045  0.61128055
   0.63986167  0.56542576  0.61017791
Direct configuration=    75
   0.74634986  0.64336727  0.64332476
   0.74399722  0.62053203  0.57629387
   0.74594339  0.57363018  0.62936171
   0.66207384  0.69668531  0.63628517
   0.56323722  0.69681917  0.63824542
   0.47883067  0.62092500  0.58151935
   0.47879940  0.57403489  0.63462683
   0.47917952  0.64376866  0.64857882
   0.56234094  0.52818748  0.60446455
   0.66117078  0.52804965  0.60252853
   0.72939909  0.61244572  0.61709696
   0.66915853  0.61239423  0.61902359
   0.63976278  0.65947770  0.62901326
   0.58454322  0.65954647  0.63011797
   0.55525165  0.61254894  0.62130890
   0.49498096  0.61280434  0.62169809
   0.58404725  0.56550045  0.61128055
   0.63986167  0.56542576  0.61017791
Direct configuration=    76
   0.74634986  0.64336727  0.64332476
   0.74399722  0.62053203  0.57629387
   0.74594339  0.57363018  0.62936171
   0.66207384  0.69668531  0.63628517
   0.56323722  0.69681917  0.63824542
   0.47883067  0.62092500  0.58151935
   0.47879940  0.57403489  0.63462683
   0.47917952  0.64376866  0.64857882
   0.56234094  0.52818748  0.60446455
   0.66117078  0.52804965  0.60252853
   0.72939909  0.61244572  0.61709696
   0.66915853  0.61239423  0.61902359
   0.64036278  0.66007770  0.62901326
   0.58454322  0.65954647  0.63011797
   0.55525165  0.61254894  0.62130890
   0.49498096  0.61280434  0.62169809
   0.58404725  0.56550045  0.61128055
   0.63986167  0.56542576  0.61017791
Direct configuration=    77
   0.74634986  0.64336727  0.64332476
   0.74399722  0.62053203  0.57629387
   0.74594339  0.57363018  0.62936171
   0.66207384  0.69668531  0.63628517
   0.56323722  0.69681917  0.63824542
   0.47883067  0.62092500  0.58151935
   0.47879940  0.57403489  0.63462683
   0.47917952  0.64376866  0.64857882
   0.56234094  0.52818748  0.60446455
   0.66117078  0.52804965  0.60252853
   0.72939909  0.61244572  0.61709696
   0.66915853  0.61239423  0.61902359
   0.64036278  0.65887770  0.62901326
   0.58454322  0.65954647  0.63011797
   0.55525165  0.61254894  0.62130890
   0.49498096  0.61280434  0.62169809
   0.58404725  0.56550045  0.61128055
   0.63986167  0.56542576  0.61017791
Direct configuration=    78
   0.74634986  0.64336727  0.64332476
   0.74399722  0.62053203  0.57629387
   0.74594339  0.57363018  0.62936171
   0.66207384  0.69668531  0.63628517
   0.56323722  0.69681917  0.63824542
   0.47883067  0.62092500  0.58151935
   0.47879940  0.57403489  0.63462683
   0.47917952  0.64376866  0.64857882
   0.56234094  0.52818748  0.60446455
   0.66117078  0.52804965  0.60252853
   0.72939909  0.61244572  0.61709696
   0.66915853  0.61239423  0.61902359
   0.64036278  0.65947770  0.62961326
   0.58454322  0.65954647  0.63011797
   0.55525165  0.61254894  0.62130890
   0.49498096  0.61280434  0.62169809
   0.58404725  0.56550045  0.61128055
   0.63986167  0.56542576  0.61017791
Direct configuration=    79
   0.74634986  0.64336727  0.64332476
   0.74399722  0.62053203  0.57629387
   0.74594339  0.57363018  0.62936171
   0.66207384  0.69668531  0.63628517
   0.56323722  0.69681917  0.63824542
   0.47883067  0.62092500  0.58151935
   0.47879940  0.57403489  0.63462683
   0.47917952  0.64376866  0.64857882
   0.56234094  0.52818748  0.60446455
   0.66117078  0.52804965  0.60252853
   0.72939909  0.61244572  0.61709696
   0.66915853  0.61239423  0.61902359
   0.64036278  0.65947770  0.62841326
   0.58454322  0.65954647  0.63011797
   0.55525165  0.61254894  0.62130890
   0.49498096  0.61280434  0.62169809
   0.58404725  0.56550045  0.61128055
   0.63986167  0.56542576  0.61017791
Direct configuration=    80
   0.74634986  0.64336727  0.64332476
   0.74399722  0.62053203  0.57629387
   0.74594339  0.57363018  0.62936171
   0.66207384  0.69668531  0.63628517
   0.56323722  0.69681917  0.63824542
   0.47883067  0.62092500  0.58151935
   0.47879940  0.57403489  0.63462683
   0.47917952  0.64376866  0.64857882
   0.56234094  0.52818748  0.60446455
   0.66117078  0.52804965  0.60252853
   0.72939909  0.61244572  0.61709696
   0.66915853  0.61239423  0.61902359
   0.64036278  0.65947770  0.62901326
   0.58514322  0.65954647  0.63011797
   0.55525165  0.61254894  0.62130890
   0.49498096  0.61280434  0.62169809
   0.58404725  0.56550045  0.61128055
   0.63986167  0.56542576  0.61017791
Direct configuration=    81
   0.74634986  0.64336727  0.64332476
   0.74399722  0.62053203  0.57629387
   0.74594339  0.57363018  0.62936171
   0.66207384  0.69668531  0.63628517
   0.56323722  0.69681917  0.63824542
   0.47883067  0.62092500  0.58151935
   0.47879940  0.57403489  0.63462683
   0.47917952  0.64376866  0.64857882
   0.56234094  0.52818748  0.60446455
   0.66117078  0.52804965  0.60252853
   0.72939909  0.61244572  0.61709696
   0.66915853  0.61239423  0.61902359
   0.64036278  0.65947770  0.62901326
   0.58394322  0.65954647  0.63011797
   0.55525165  0.61254894  0.62130890
   0.49498096  0.61280434  0.62169809
   0.58404725  0.56550045  0.61128055
   0.63986167  0.56542576  0.61017791
Direct configuration=    82
   0.74634986  0.64336727  0.64332476
   0.74399722  0.62053203  0.57629387
   0.74594339  0.57363018  0.62936171
   0.66207384  0.69668531  0.63628517
   0.56323722  0.69681917  0.63824542
   0.47883067  0.62092500  0.58151935
   0.47879940  0.57403489  0.63462683
   0.47917952  0.64376866  0.64857882
   0.56234094  0.52818748  0.60446455
   0.66117078  0.52804965  0.60252853
   0.72939909  0.61244572  0.61709696
   0.66915853  0.61239423  0.61902359
   0.64036278  0.65947770  0.62901326
   0.58454322  0.66014647  0.63011797
   0.55525165  0.61254894  0.62130890
   0.49498096  0.61280434  0.62169809
   0.58404725  0.56550045  0.61128055
   0.63986167  0.56542576  0.61017791
Direct configuration=    83
   0.74634986  0.64336727  0.64332476
   0.74399722  0.62053203  0.57629387
   0.74594339  0.57363018  0.62936171
   0.66207384  0.69668531  0.63628517
   0.56323722  0.69681917  0.63824542
   0.47883067  0.62092500  0.58151935
   0.47879940  0.57403489  0.63462683
   0.47917952  0.64376866  0.64857882
   0.56234094  0.52818748  0.60446455
   0.66117078  0.52804965  0.60252853
   0.72939909  0.61244572  0.61709696
   0.66915853  0.61239423  0.61902359
   0.64036278  0.65947770  0.62901326
   0.58454322  0.65894647  0.63011797
   0.55525165  0.61254894  0.62130890
   0.49498096  0.61280434  0.62169809
   0.58404725  0.56550045  0.61128055
   0.63986167  0.56542576  0.61017791
Direct configuration=    84
   0.74634986  0.64336727  0.64332476
   0.74399722  0.62053203  0.57629387
   0.74594339  0.57363018  0.62936171
   0.66207384  0.69668531  0.63628517
   0.56323722  0.69681917  0.63824542
   0.47883067  0.62092500  0.58151935
   0.47879940  0.57403489  0.63462683
   0.47917952  0.64376866  0.64857882
   0.56234094  0.52818748  0.60446455
   0.66117078  0.52804965  0.60252853
   0.72939909  0.61244572  0.61709696
   0.66915853  0.61239423  0.61902359
   0.64036278  0.65947770  0.62901326
   0.58454322  0.65954647  0.63071797
   0.55525165  0.61254894  0.62130890
   0.49498096  0.61280434  0.62169809
   0.58404725  0.56550045  0.61128055
   0.63986167  0.56542576  0.61017791
Direct configuration=    85
   0.74634986  0.64336727  0.64332476
   0.74399722  0.62053203  0.57629387
   0.74594339  0.57363018  0.62936171
   0.66207384  0.69668531  0.63628517
   0.56323722  0.69681917  0.63824542
   0.47883067  0.62092500  0.58151935
   0.47879940  0.57403489  0.63462683
   0.47917952  0.64376866  0.64857882
   0.56234094  0.52818748  0.60446455
   0.66117078  0.52804965  0.60252853
   0.72939909  0.61244572  0.61709696
   0.66915853  0.61239423  0.61902359
   0.64036278  0.65947770  0.62901326
   0.58454322  0.65954647  0.62951797
   0.55525165  0.61254894  0.62130890
   0.49498096  0.61280434  0.62169809
   0.58404725  0.56550045  0.61128055
   0.63986167  0.56542576  0.61017791
Direct configuration=    86
   0.74634986  0.64336727  0.64332476
   0.74399722  0.62053203  0.57629387
   0.74594339  0.57363018  0.62936171
   0.66207384  0.69668531  0.63628517
   0.56323722  0.69681917  0.63824542
   0.47883067  0.62092500  0.58151935
   0.47879940  0.57403489  0.63462683
   0.47917952  0.64376866  0.64857882
   0.56234094  0.52818748  0.60446455
   0.66117078  0.52804965  0.60252853
   0.72939909  0.61244572  0.61709696
   0.66915853  0.61239423  0.61902359
   0.64036278  0.65947770  0.62901326
   0.58454322  0.65954647  0.63011797
   0.55585165  0.61254894  0.62130890
   0.49498096  0.61280434  0.62169809
   0.58404725  0.56550045  0.61128055
   0.63986167  0.56542576  0.61017791
Direct configuration=    87
   0.74634986  0.64336727  0.64332476
   0.74399722  0.62053203  0.57629387
   0.74594339  0.57363018  0.62936171
   0.66207384  0.69668531  0.63628517
   0.56323722  0.69681917  0.63824542
   0.47883067  0.62092500  0.58151935
   0.47879940  0.57403489  0.63462683
   0.47917952  0.64376866  0.64857882
   0.56234094  0.52818748  0.60446455
   0.66117078  0.52804965  0.60252853
   0.72939909  0.61244572  0.61709696
   0.66915853  0.61239423  0.61902359
   0.64036278  0.65947770  0.62901326
   0.58454322  0.65954647  0.63011797
   0.55465165  0.61254894  0.62130890
   0.49498096  0.61280434  0.62169809
   0.58404725  0.56550045  0.61128055
   0.63986167  0.56542576  0.61017791
Direct configuration=    88
   0.74634986  0.64336727  0.64332476
   0.74399722  0.62053203  0.57629387
   0.74594339  0.57363018  0.62936171
   0.66207384  0.69668531  0.63628517
   0.56323722  0.69681917  0.63824542
   0.47883067  0.62092500  0.58151935
   0.47879940  0.57403489  0.63462683
   0.47917952  0.64376866  0.64857882
   0.56234094  0.52818748  0.60446455
   0.66117078  0.52804965  0.60252853
   0.72939909  0.61244572  0.61709696
   0.66915853  0.61239423  0.61902359
   0.64036278  0.65947770  0.62901326
   0.58454322  0.65954647  0.63011797
   0.55525165  0.61314894  0.62130890
   0.49498096  0.61280434  0.62169809
   0.58404725  0.56550045  0.61128055
   0.63986167  0.56542576  0.61017791
Direct configuration=    89
   0.74634986  0.64336727  0.64332476
   0.74399722  0.62053203  0.57629387
   0.74594339  0.57363018  0.62936171
   0.66207384  0.69668531  0.63628517
   0.56323722  0.69681917  0.63824542
   0.47883067  0.62092500  0.58151935
   0.47879940  0.57403489  0.63462683
   0.47917952  0.64376866  0.64857882
   0.56234094  0.52818748  0.60446455
   0.66117078  0.52804965  0.60252853
   0.72939909  0.61244572  0.61709696
   0.66915853  0.61239423  0.61902359
   0.64036278  0.65947770  0.62901326
   0.58454322  0.65954647  0.63011797
   0.55525165  0.61194894  0.62130890
   0.49498096  0.61280434  0.62169809
   0.58404725  0.56550045  0.61128055
   0.63986167  0.56542576  0.61017791
Direct configuration=    90
   0.74634986  0.64336727  0.64332476
   0.74399722  0.62053203  0.57629387
   0.74594339  0.57363018  0.62936171
   0.66207384  0.69668531  0.63628517
   0.56323722  0.69681917  0.63824542
   0.47883067  0.62092500  0.58151935
   0.47879940  0.57403489  0.63462683
   0.47917952  0.64376866  0.64857882
   0.56234094  0.52818748  0.60446455
   0.66117078  0.52804965  0.60252853
   0.72939909  0.61244572  0.61709696
   0.66915853  0.61239423  0.61902359
   0.64036278  0.65947770  0.62901326
   0.58454322  0.65954647  0.63011797
   0.55525165  0.61254894  0.62190890
   0.49498096  0.61280434  0.62169809
   0.58404725  0.56550045  0.61128055
   0.63986167  0.56542576  0.61017791
Direct configuration=    91
   0.74634986  0.64336727  0.64332476
   0.74399722  0.62053203  0.57629387
   0.74594339  0.57363018  0.62936171
   0.66207384  0.69668531  0.63628517
   0.56323722  0.69681917  0.63824542
   0.47883067  0.62092500  0.58151935
   0.47879940  0.57403489  0.63462683
   0.47917952  0.64376866  0.64857882
   0.56234094  0.52818748  0.60446455
   0.66117078  0.52804965  0.60252853
   0.72939909  0.61244572  0.61709696
   0.66915853  0.61239423  0.61902359
   0.64036278  0.65947770  0.62901326
   0.58454322  0.65954647  0.63011797
   0.55525165  0.61254894  0.62070890
   0.49498096  0.61280434  0.62169809
   0.58404725  0.56550045  0.61128055
   0.63986167  0.56542576  0.61017791
Direct configuration=    92
   0.74634986  0.64336727  0.64332476
   0.74399722  0.62053203  0.57629387
   0.74594339  0.57363018  0.62936171
   0.66207384  0.69668531  0.63628517
   0.56323722  0.69681917  0.63824542
   0.47883067  0.62092500  0.58151935
   0.47879940  0.57403489  0.63462683
   0.47917952  0.64376866  0.64857882
   0.56234094  0.52818748  0.60446455
   0.66117078  0.52804965  0.60252853
   0.72939909  0.61244572  0.61709696
   0.66915853  0.61239423  0.61902359
   0.64036278  0.65947770  0.62901326
   0.58454322  0.65954647  0.63011797
   0.55525165  0.61254894  0.62130890
   0.49558096  0.61280434  0.62169809
   0.58404725  0.56550045  0.61128055
   0.63986167  0.56542576  0.61017791
Direct configuration=    93
   0.74634986  0.64336727  0.64332476
   0.74399722  0.62053203  0.57629387
   0.74594339  0.57363018  0.62936171
   0.66207384  0.69668531  0.63628517
   0.56323722  0.69681917  0.63824542
   0.47883067  0.62092500  0.58151935
   0.47879940  0.57403489  0.63462683
   0.47917952  0.64376866  0.64857882
   0.56234094  0.52818748  0.60446455
   0.66117078  0.52804965  0.60252853
   0.72939909  0.61244572  0.61709696
   0.66915853  0.61239423  0.61902359
   0.64036278  0.65947770  0.62901326
   0.58454322  0.65954647  0.63011797
   0.55525165  0.61254894  0.62130890
   0.49438096  0.61280434  0.62169809
   0.58404725  0.56550045  0.61128055
   0.63986167  0.56542576  0.61017791
Direct configuration=    94
   0.74634986  0.64336727  0.64332476
   0.74399722  0.62053203  0.57629387
   0.74594339  0.57363018  0.62936171
   0.66207384  0.69668531  0.63628517
   0.56323722  0.69681917  0.63824542
   0.47883067  0.62092500  0.58151935
   0.47879940  0.57403489  0.63462683
   0.47917952  0.64376866  0.64857882
   0.56234094  0.52818748  0.60446455
   0.66117078  0.52804965  0.60252853
   0.72939909  0.61244572  0.61709696
   0.66915853  0.61239423  0.61902359
   0.64036278  0.65947770  0.62901326
   0.58454322  0.65954647  0.63011797
   0.55525165  0.61254894  0.62130890
   0.49498096  0.61340434  0.62169809
   0.58404725  0.56550045  0.61128055
   0.63986167  0.56542576  0.61017791
Direct configuration=    95
   0.74634986  0.64336727  0.64332476
   0.74399722  0.62053203  0.57629387
   0.74594339  0.57363018  0.62936171
   0.66207384  0.69668531  0.63628517
   0.56323722  0.69681917  0.63824542
   0.47883067  0.62092500  0.58151935
   0.47879940  0.57403489  0.63462683
   0.47917952  0.64376866  0.64857882
   0.56234094  0.52818748  0.60446455
   0.66117078  0.52804965  0.60252853
   0.72939909  0.61244572  0.61709696
   0.66915853  0.61239423  0.61902359
   0.64036278  0.65947770  0.62901326
   0.58454322  0.65954647  0.63011797
   0.55525165  0.61254894  0.62130890
   0.49498096  0.61220434  0.62169809
   0.58404725  0.56550045  0.61128055
   0.63986167  0.56542576  0.61017791
Direct configuration=    96
   0.74634986  0.64336727  0.64332476
   0.74399722  0.62053203  0.57629387
   0.74594339  0.57363018  0.62936171
   0.66207384  0.69668531  0.63628517
   0.56323722  0.69681917  0.63824542
   0.47883067  0.62092500  0.58151935
   0.47879940  0.57403489  0.63462683
   0.47917952  0.64376866  0.64857882
   0.56234094  0.52818748  0.60446455
   0.66117078  0.52804965  0.60252853
   0.72939909  0.61244572  0.61709696
   0.66915853  0.61239423  0.61902359
   0.64036278  0.65947770  0.62901326
   0.58454322  0.65954647  0.63011797
   0.55525165  0.61254894  0.62130890
   0.49498096  0.61280434  0.62229809
   0.58404725  0.56550045  0.61128055
   0.63986167  0.56542576  0.61017791
Direct configuration=    97
   0.74634986  0.64336727  0.64332476
   0.74399722  0.62053203  0.57629387
   0.74594339  0.57363018  0.62936171
   0.66207384  0.69668531  0.63628517
   0.56323722  0.69681917  0.63824542
   0.47883067  0.62092500  0.58151935
   0.47879940  0.57403489  0.63462683
   0.47917952  0.64376866  0.64857882
   0.56234094  0.52818748  0.60446455
   0.66117078  0.52804965  0.60252853
   0.72939909  0.61244572  0.61709696
   0.66915853  0.61239423  0.61902359
   0.64036278  0.65947770  0.62901326
   0.58454322  0.65954647  0.63011797
   0.55525165  0.61254894  0.62130890
   0.49498096  0.61280434  0.62109809
   0.58404725  0.56550045  0.61128055
   0.63986167  0.56542576  0.61017791
Direct configuration=    98
   0.74634986  0.64336727  0.64332476
   0.74399722  0.62053203  0.57629387
   0.74594339  0.57363018  0.62936171
   0.66207384  0.69668531  0.63628517
   0.56323722  0.69681917  0.63824542
   0.47883067  0.62092500  0.58151935
   0.47879940  0.57403489  0.63462683
   0.47917952  0.64376866  0.64857882
   0.56234094  0.52818748  0.60446455
   0.66117078  0.52804965  0.60252853
   0.72939909  0.61244572  0.61709696
   0.66915853  0.61239423  0.61902359
   0.64036278  0.65947770  0.62901326
   0.58454322  0.65954647  0.63011797
   0.55525165  0.61254894  0.62130890
   0.49498096  0.61280434  0.62169809
   0.58464725  0.56550045  0.61128055
   0.63986167  0.56542576  0.61017791
Direct configuration=    99
   0.74634986  0.64336727  0.64332476
   0.74399722  0.62053203  0.57629387
   0.74594339  0.57363018  0.62936171
   0.66207384  0.69668531  0.63628517
   0.56323722  0.69681917  0.63824542
   0.47883067  0.62092500  0.58151935
   0.47879940  0.57403489  0.63462683
   0.47917952  0.64376866  0.64857882
   0.56234094  0.52818748  0.60446455
   0.66117078  0.52804965  0.60252853
   0.72939909  0.61244572  0.61709696
   0.66915853  0.61239423  0.61902359
   0.64036278  0.65947770  0.62901326
   0.58454322  0.65954647  0.63011797
   0.55525165  0.61254894  0.62130890
   0.49498096  0.61280434  0.62169809
   0.58344725  0.56550045  0.61128055
   0.63986167  0.56542576  0.61017791
Direct configuration=   100
   0.74634986  0.64336727  0.64332476
   0.74399722  0.62053203  0.57629387
   0.74594339  0.57363018  0.62936171
   0.66207384  0.69668531  0.63628517
   0.56323722  0.69681917  0.63824542
   0.47883067  0.62092500  0.58151935
   0.47879940  0.57403489  0.63462683
   0.47917952  0.64376866  0.64857882
   0.56234094  0.52818748  0.60446455
   0.66117078  0.52804965  0.60252853
   0.72939909  0.61244572  0.61709696
   0.66915853  0.61239423  0.61902359
   0.64036278  0.65947770  0.62901326
   0.58454322  0.65954647  0.63011797
   0.55525165  0.61254894  0.62130890
   0.49498096  0.61280434  0.62169809
   0.58404725  0.56610045  0.61128055
   0.63986167  0.56542576  0.61017791
Direct configuration=   101
   0.74634986  0.64336727  0.64332476
   0.74399722  0.62053203  0.57629387
   0.74594339  0.57363018  0.62936171
   0.66207384  0.69668531  0.63628517
   0.56323722  0.69681917  0.63824542
   0.47883067  0.62092500  0.58151935
   0.47879940  0.57403489  0.63462683
   0.47917952  0.64376866  0.64857882
   0.56234094  0.52818748  0.60446455
   0.66117078  0.52804965  0.60252853
   0.72939909  0.61244572  0.61709696
   0.66915853  0.61239423  0.61902359
   0.64036278  0.65947770  0.62901326
   0.58454322  0.65954647  0.63011797
   0.55525165  0.61254894  0.62130890
   0.49498096  0.61280434  0.62169809
   0.58404725  0.56490045  0.61128055
   0.63986167  0.56542576  0.61017791
Direct configuration=   102
   0.74634986  0.64336727  0.64332476
   0.74399722  0.62053203  0.57629387
   0.74594339  0.57363018  0.62936171
   0.66207384  0.69668531  0.63628517
   0.56323722  0.69681917  0.63824542
   0.47883067  0.62092500  0.58151935
   0.47879940  0.57403489  0.63462683
   0.47917952  0.64376866  0.64857882
   0.56234094  0.52818748  0.60446455
   0.66117078  0.52804965  0.60252853
   0.72939909  0.61244572  0.61709696
   0.66915853  0.61239423  0.61902359
   0.64036278  0.65947770  0.62901326
   0.58454322  0.65954647  0.63011797
   0.55525165  0.61254894  0.62130890
   0.49498096  0.61280434  0.62169809
   0.58404725  0.56550045  0.61188055
   0.63986167  0.56542576  0.61017791
Direct configuration=   103
   0.74634986  0.64336727  0.64332476
   0.74399722  0.62053203  0.57629387
   0.74594339  0.57363018  0.62936171
   0.66207384  0.69668531  0.63628517
   0.56323722  0.69681917  0.63824542
   0.47883067  0.62092500  0.58151935
   0.47879940  0.57403489  0.63462683
   0.47917952  0.64376866  0.64857882
   0.56234094  0.52818748  0.60446455
   0.66117078  0.52804965  0.60252853
   0.72939909  0.61244572  0.61709696
   0.66915853  0.61239423  0.61902359
   0.64036278  0.65947770  0.62901326
   0.58454322  0.65954647  0.63011797
   0.55525165  0.61254894  0.62130890
   0.49498096  0.61280434  0.62169809
   0.58404725  0.56550045  0.61068055
   0.63986167  0.56542576  0.61017791
Direct configuration=   104
   0.74634986  0.64336727  0.64332476
   0.74399722  0.62053203  0.57629387
   0.74594339  0.57363018  0.62936171
   0.66207384  0.69668531  0.63628517
   0.56323722  0.69681917  0.63824542
   0.47883067  0.62092500  0.58151935
   0.47879940  0.57403489  0.63462683
   0.47917952  0.64376866  0.64857882
   0.56234094  0.52818748  0.60446455
   0.66117078  0.52804965  0.60252853
   0.72939909  0.61244572  0.61709696
   0.66915853  0.61239423  0.61902359
   0.64036278  0.65947770  0.62901326
   0.58454322  0.65954647  0.63011797
   0.55525165  0.61254894  0.62130890
   0.49498096  0.61280434  0.62169809
   0.58404725  0.56550045  0.61128055
   0.64046167  0.56542576  0.61017791
Direct configuration=   105
   0.74634986  0.64336727  0.64332476
   0.74399722  0.62053203  0.57629387
   0.74594339  0.57363018  0.62936171
   0.66207384  0.69668531  0.63628517
   0.56323722  0.69681917  0.63824542
   0.47883067  0.62092500  0.58151935
   0.47879940  0.57403489  0.63462683
   0.47917952  0.64376866  0.64857882
   0.56234094  0.52818748  0.60446455
   0.66117078  0.52804965  0.60252853
   0.72939909  0.61244572  0.61709696
   0.66915853  0.61239423  0.61902359
   0.64036278  0.65947770  0.62901326
   0.58454322  0.65954647  0.63011797
   0.55525165  0.61254894  0.62130890
   0.49498096  0.61280434  0.62169809
   0.58404725  0.56550045  0.61128055
   0.63926167  0.56542576  0.61017791
Direct configuration=   106
   0.74634986  0.64336727  0.64332476
   0.74399722  0.62053203  0.57629387
   0.74594339  0.57363018  0.62936171
   0.66207384  0.69668531  0.63628517
   0.56323722  0.69681917  0.63824542
   0.47883067  0.62092500  0.58151935
   0.47879940  0.57403489  0.63462683
   0.47917952  0.64376866  0.64857882
   0.56234094  0.52818748  0.60446455
   0.66117078  0.52804965  0.60252853
   0.72939909  0.61244572  0.61709696
   0.66915853  0.61239423  0.61902359
   0.64036278  0.65947770  0.62901326
   0.58454322  0.65954647  0.63011797
   0.55525165  0.61254894  0.62130890
   0.49498096  0.61280434  0.62169809
   0.58404725  0.56550045  0.61128055
   0.63986167  0.56602576  0.61017791
Direct configuration=   107
   0.74634986  0.64336727  0.64332476
   0.74399722  0.62053203  0.57629387
   0.74594339  0.57363018  0.62936171
   0.66207384  0.69668531  0.63628517
   0.56323722  0.69681917  0.63824542
   0.47883067  0.62092500  0.58151935
   0.47879940  0.57403489  0.63462683
   0.47917952  0.64376866  0.64857882
   0.56234094  0.52818748  0.60446455
   0.66117078  0.52804965  0.60252853
   0.72939909  0.61244572  0.61709696
   0.66915853  0.61239423  0.61902359
   0.64036278  0.65947770  0.62901326
   0.58454322  0.65954647  0.63011797
   0.55525165  0.61254894  0.62130890
   0.49498096  0.61280434  0.62169809
   0.58404725  0.56550045  0.61128055
   0.63986167  0.56482576  0.61017791
Direct configuration=   108
   0.74634986  0.64336727  0.64332476
   0.74399722  0.62053203  0.57629387
   0.74594339  0.57363018  0.62936171
   0.66207384  0.69668531  0.63628517
   0.56323722  0.69681917  0.63824542
   0.47883067  0.62092500  0.58151935
   0.47879940  0.57403489  0.63462683
   0.47917952  0.64376866  0.64857882
   0.56234094  0.52818748  0.60446455
   0.66117078  0.52804965  0.60252853
   0.72939909  0.61244572  0.61709696
   0.66915853  0.61239423  0.61902359
   0.64036278  0.65947770  0.62901326
   0.58454322  0.65954647  0.63011797
   0.55525165  0.61254894  0.62130890
   0.49498096  0.61280434  0.62169809
   0.58404725  0.56550045  0.61128055
   0.63986167  0.56542576  0.61077791
Direct configuration=   109
   0.74634986  0.64336727  0.64332476
   0.74399722  0.62053203  0.57629387
   0.74594339  0.57363018  0.62936171
   0.66207384  0.69668531  0.63628517
   0.56323722  0.69681917  0.63824542
   0.47883067  0.62092500  0.58151935
   0.47879940  0.57403489  0.63462683
   0.47917952  0.64376866  0.64857882
   0.56234094  0.52818748  0.60446455
   0.66117078  0.52804965  0.60252853
   0.72939909  0.61244572  0.61709696
   0.66915853  0.61239423  0.61902359
   0.64036278  0.65947770  0.62901326
   0.58454322  0.65954647  0.63011797
   0.55525165  0.61254894  0.62130890
   0.49498096  0.61280434  0.62169809
   0.58404725  0.56550045  0.61128055
   0.63986167  0.56542576  0.60957791
