Fe2                                     
   1.00000000000000     
     2.8311780106827760   -0.0000000000000000    0.0000000000000002
     0.0000000000000005    2.8311780106827760    0.0000000000000002
     0.0000000000000000    0.0000000000000000    2.8311780106827760
   Fe
     2
Direct
 -0.0000000000000000 -0.0000000000000000  0.0000000000000000
  0.5000000000000000  0.5000000000000000  0.5000000000000000
 
  0.00000000E+00  0.00000000E+00  0.00000000E+00
  0.00000000E+00  0.00000000E+00  0.00000000E+00
