Fe2                                     
   1.00000000000000     
     2.8053395779473780    0.0000000159057724    0.0000000085984659
     0.0000000157913706    2.8053396360711855   -0.0000000028935948
     0.0000000084527720   -0.0000000026917019    2.8053426761472124
   Fe
     2
Direct
 -0.0000000051110050 -0.0000000073243234 -0.0000000038419320
  0.5000000051110050  0.5000000073243234  0.5000000038419320
 
  0.00000000E+00  0.00000000E+00  0.00000000E+00
  0.00000000E+00  0.00000000E+00  0.00000000E+00
