O2                                      
   1.00000000000000     
    21.1509299999999989    0.0000000000000000    0.0000000000000000
     0.0000000000000000   21.1509299999999989    0.0000000000000000
     0.0000000000000000    0.0000000000000000   21.1509299999999989
   O 
     2
Direct
  0.5291723412367270  0.4999999996927162  0.5000000000310658
  0.4708276587632732  0.5000000003072838  0.4999999999689342
 
  0.00000000E+00  0.00000000E+00  0.00000000E+00
  0.00000000E+00  0.00000000E+00  0.00000000E+00
