ALGO = Fast
EDIFF = 1e-06
EDIFFG = -0.02
ENCUT = 520.0
IBRION = 2
ISIF = 2
ISMEAR = 0
# Singlet O2: enforce total spin moment 0 μB
ISPIN = 2
ISYM = 0
LASPH = True
LCHARG = False
LDAU = False
LORBIT = 11
LREAL = False
LWAVE = False
NUPDOWN = 0
MAGMOM = 2*0.0
NELM = 100
NSW = 500
PREC = Accurate
SIGMA = 0.01
NCORE = 8
