O2
1.0
  21.1509299999999989    0.0000000000000000    0.0000000000000000
   0.0000000000000000   21.1509299999999989    0.0000000000000000
   0.0000000000000000    0.0000000000000000   21.1509299999999989
O
2
direct
   0.5272075506845325    0.5000000000000000    0.5000000000000000 O
   0.4727924493154675    0.5000000000000000    0.5000000000000000 O
