mp-13 Fe scaled to 16.0 A^3/atom (V=32.000000 A^3; N=2)
1.0
   3.1748021039363987    0.0000000000000000    0.0000000000000002
   0.0000000000000006    3.1748021039363987    0.0000000000000002
   0.0000000000000000    0.0000000000000000    3.1748021039363987
Fe
2
direct
   0.0000000000000000    0.0000000000000000    0.0000000000000000 Fe
   0.5000000000000000    0.5000000000000000    0.5000000000000000 Fe
