Fe20
1.0
   2.8311780106827755    0.0000000000000000   -2.8311780106827751
   0.0000000000000011    2.8311780106827755   -2.8311780106827751
   0.0000000000000000    0.0000000000000000   56.6235602136555087
Fe
20
direct
   0.0000000000000000    0.0000000000000000    0.2875000000000000 Fe
   0.5000000000000000    0.5000000000000000    0.2625000000000001 Fe
   0.0000000000000000    0.0000000000000000    0.3375000000000000 Fe
   0.5000000000000000    0.5000000000000000    0.3125000000000001 Fe
   0.0000000000000000    0.0000000000000000    0.3875000000000001 Fe
   0.5000000000000000    0.5000000000000000    0.3625000000000000 Fe
   0.0000000000000000    0.0000000000000000    0.4375000000000001 Fe
   0.5000000000000000    0.5000000000000000    0.4125000000000001 Fe
   0.0000000000000000    0.0000000000000000    0.4875000000000000 Fe
   0.5000000000000000    0.5000000000000000    0.4625000000000001 Fe
   0.0000000000000000    0.0000000000000000    0.5375000000000001 Fe
   0.5000000000000000    0.5000000000000000    0.5125000000000001 Fe
   0.0000000000000000    0.0000000000000000    0.5875000000000000 Fe
   0.5000000000000000    0.5000000000000000    0.5625000000000000 Fe
   0.0000000000000000    0.0000000000000000    0.6375000000000000 Fe
   0.5000000000000000    0.5000000000000000    0.6125000000000000 Fe
   0.0000000000000000    0.0000000000000000    0.6875000000000000 Fe
   0.5000000000000000    0.5000000000000000    0.6625000000000001 Fe
   0.0000000000000000    0.0000000000000000    0.7375000000000000 Fe
   0.5000000000000000    0.5000000000000000    0.7125000000000001 Fe
