Fe7                                     
   1.00000000000000     
     2.4294962518964969    0.0000000000000000    0.0000000000000001
    -0.8098320839654988    2.2905510327777514    0.0000000000000001
     0.0000000000000000    0.0000000000000000   29.7551307457532310
   Fe
     7
Selective dynamics
Direct
  0.2500000652286444  0.7500000590674798  0.2991917174123075   T   T   T
  0.7500000533654775  0.2500000616360611  0.3662768630724827   T   T   T
  0.2500000000000071  0.7500000000000000  0.4333333333333300   F   F   F
  0.7500000000000071  0.2500000000000000  0.5000000000000000   F   F   F
  0.2500000000000071  0.7500000000000000  0.5666666666666700   F   F   F
  0.7499999373447657  0.2499999391637777  0.6337222691044124   T   T   T
  0.2499999347411284  0.7499999380626855  0.7008073704789946   T   T   T
 
  0.00000000E+00  0.00000000E+00  0.00000000E+00
  0.00000000E+00  0.00000000E+00  0.00000000E+00
  0.00000000E+00  0.00000000E+00  0.00000000E+00
  0.00000000E+00  0.00000000E+00  0.00000000E+00
  0.00000000E+00  0.00000000E+00  0.00000000E+00
  0.00000000E+00  0.00000000E+00  0.00000000E+00
  0.00000000E+00  0.00000000E+00  0.00000000E+00
