Fe16                                    
   1.00000000000000     
     3.9673507661004304    0.0000000000000000    0.0000000000000002
     1.9836753830502141    3.4358265491666269    0.0000000000000002
     0.0000000000000000    0.0000000000000000   29.1539550227579412
   Fe
    16
Selective dynamics
Direct
  0.0833332469111564  0.0833332500388584  0.3208084948419038   T   T   T
  0.7499967560179887  0.7499967627301746  0.2923186644521588   T   T   T
  0.7500000027270887  0.7500000022931347  0.3746174918199540   T   T   T
  0.4166666482394062  0.4166666463925949  0.3448197882100457   T   T   T
  0.4166668528680222  0.4166668530843401  0.4308534740001818   T   T   T
  0.0833332990005623  0.0833333016363647  0.4029740359675280   T   T   T
  0.0833333333333286  0.0833333333333286  0.4861111111111143   F   F   F
  0.7500000000000000  0.7500000000000000  0.4583333333333357   F   F   F
  0.7500000000000000  0.7500000000000000  0.5416666666666643   F   F   F
  0.4166666666666643  0.4166666666666643  0.5138888888888857   F   F   F
  0.4166666694160520  0.4166666672428269  0.5970258286156297   T   T   T
  0.0833331263102224  0.0833331251166907  0.5691465858606147   T   T   T
  0.0833333309130185  0.0833333313031816  0.6551804124069671   T   T   T
  0.7499999715095080  0.7499999713292904  0.6253823604394587   T   T   T
  0.7500033937022225  0.7500033893577179  0.7076805960879685   T   T   T
  0.4166667793580951  0.4166667758110174  0.6791913863653021   T   T   T
 
  0.00000000E+00  0.00000000E+00  0.00000000E+00
  0.00000000E+00  0.00000000E+00  0.00000000E+00
  0.00000000E+00  0.00000000E+00  0.00000000E+00
  0.00000000E+00  0.00000000E+00  0.00000000E+00
  0.00000000E+00  0.00000000E+00  0.00000000E+00
  0.00000000E+00  0.00000000E+00  0.00000000E+00
  0.00000000E+00  0.00000000E+00  0.00000000E+00
  0.00000000E+00  0.00000000E+00  0.00000000E+00
  0.00000000E+00  0.00000000E+00  0.00000000E+00
  0.00000000E+00  0.00000000E+00  0.00000000E+00
  0.00000000E+00  0.00000000E+00  0.00000000E+00
  0.00000000E+00  0.00000000E+00  0.00000000E+00
  0.00000000E+00  0.00000000E+00  0.00000000E+00
  0.00000000E+00  0.00000000E+00  0.00000000E+00
  0.00000000E+00  0.00000000E+00  0.00000000E+00
  0.00000000E+00  0.00000000E+00  0.00000000E+00
