Fe28                                    
   1.00000000000000     
     4.8589925037929937    0.0000000000000000    0.0000000000000003
    -1.6196641679309975    4.5811020655555028    0.0000000000000003
     0.0000000000000000    0.0000000000000000   29.7551307457532310
   Fe
    28
Selective dynamics
Direct
  0.1250000000000000  0.3750000000000000  0.2999999999999972   F   F   F
  0.1250000000000000  0.8750000000000000  0.2999999999999972   F   F   F
  0.6250000000000000  0.3750000000000000  0.2999999999999972   F   F   F
  0.6250000000000000  0.8750000000000000  0.2999999999999972   F   F   F
  0.3750000000000000  0.1250000000000000  0.3666666666666671   F   F   F
  0.3750000000000000  0.6250000000000000  0.3666666666666671   F   F   F
  0.8750000000000000  0.1250000000000000  0.3666666666666671   F   F   F
  0.8750000000000000  0.6250000000000000  0.3666666666666671   F   F   F
  0.1250000000000000  0.3750000000000000  0.4333333333333300   F   F   F
  0.1250000000000000  0.8750000000000000  0.4333333333333300   F   F   F
  0.6250000000000000  0.3750000000000000  0.4333333333333300   F   F   F
  0.6250000000000000  0.8750000000000000  0.4333333333333300   F   F   F
  0.8750000040081718  0.1249999982954505  0.4997296151710676   T   T   T
  0.8749999991514520  0.6250000016702795  0.4997296232722041   T   T   T
  0.3750000051128297  0.1249999999876711  0.4997296246555447   T   T   T
  0.3749999998307453  0.6250000040727168  0.4997296098578002   T   T   T
  0.1249999316521839  0.8749999988742692  0.5661611172537032   T   T   T
  0.1249998193341452  0.3749998270752719  0.5661611411251231   T   T   T
  0.6250001738867231  0.8750001684721745  0.5661611302779193   T   T   T
  0.6250000613257867  0.3749999961479024  0.5661611275496855   T   T   T
  0.8750001525421485  0.1250001405094358  0.6332882857118138   T   T   T
  0.8749998024269829  0.6249998017581299  0.6332883429558276   T   T   T
  0.3750001604773304  0.1250001635937437  0.6332883426465200   T   T   T
  0.3749998113338598  0.6249998234259920  0.6332882572583270   T   T   T
  0.1249999058060687  0.8750000030892625  0.7005849266164571   T   T   T
  0.1249997714264928  0.3749997603428614  0.7005849214491626   T   T   T
  0.6250001856679350  0.8750001952870474  0.7005849277091757   T   T   T
  0.6250000497707987  0.3749999523441717  0.7005849220212500   T   T   T
 
  0.00000000E+00  0.00000000E+00  0.00000000E+00
  0.00000000E+00  0.00000000E+00  0.00000000E+00
  0.00000000E+00  0.00000000E+00  0.00000000E+00
  0.00000000E+00  0.00000000E+00  0.00000000E+00
  0.00000000E+00  0.00000000E+00  0.00000000E+00
  0.00000000E+00  0.00000000E+00  0.00000000E+00
  0.00000000E+00  0.00000000E+00  0.00000000E+00
  0.00000000E+00  0.00000000E+00  0.00000000E+00
  0.00000000E+00  0.00000000E+00  0.00000000E+00
  0.00000000E+00  0.00000000E+00  0.00000000E+00
  0.00000000E+00  0.00000000E+00  0.00000000E+00
  0.00000000E+00  0.00000000E+00  0.00000000E+00
  0.00000000E+00  0.00000000E+00  0.00000000E+00
  0.00000000E+00  0.00000000E+00  0.00000000E+00
  0.00000000E+00  0.00000000E+00  0.00000000E+00
  0.00000000E+00  0.00000000E+00  0.00000000E+00
  0.00000000E+00  0.00000000E+00  0.00000000E+00
  0.00000000E+00  0.00000000E+00  0.00000000E+00
  0.00000000E+00  0.00000000E+00  0.00000000E+00
  0.00000000E+00  0.00000000E+00  0.00000000E+00
  0.00000000E+00  0.00000000E+00  0.00000000E+00
  0.00000000E+00  0.00000000E+00  0.00000000E+00
  0.00000000E+00  0.00000000E+00  0.00000000E+00
  0.00000000E+00  0.00000000E+00  0.00000000E+00
  0.00000000E+00  0.00000000E+00  0.00000000E+00
  0.00000000E+00  0.00000000E+00  0.00000000E+00
  0.00000000E+00  0.00000000E+00  0.00000000E+00
  0.00000000E+00  0.00000000E+00  0.00000000E+00
