ALGO = Fast
EDIFF = 1e-05
EDIFFG = -0.05
ENCUT = 520.0
IBRION = 2
ISIF = 2
ISMEAR = 0
ISPIN = 2
ISYM = 0
IVDW = 11
LASPH = True
LDAU = False
LORBIT = 11
LREAL = False
LWAVE = False
LCHARG = False
MAGMOM = 2*3.0
NELM = 150
NSW = 500
PREC = Accurate
SIGMA = 0.01
NCORE = 16
