O2
1.0
  15.1281220000000012    0.0000000000000000    0.0000000000000000
   0.0000000000000000   16.1281220000000012    0.0000000000000000
   0.0000000000000000    0.0000000000000000   14.1281220000000012
O
2
Cart
   7 8 8 O
   8.25 8 8 O
