O2
1.0
  31.1281220000000012    0.0000000000000000    0.0000000000000000
   0.0000000000000000   31.1281220000000012    0.0000000000000000
   0.0000000000000000    0.0000000000000000   31.1281220000000012
O
2
direct
   0.5214896399383191    0.4999999999999999    0.4999999999999999 O
   0.4818793758261420    0.4999999999999999    0.4999999999999999 O
