Fe10                                    
   1.00000000000000     
     2.8053406300552588    0.0000000000000000    0.0000000000000002
     0.0000000000000005    2.8053406300552588    0.0000000000000002
     0.0000000000000000    0.0000000000000000   30.8587469306078468
   Fe
    10
Selective dynamics
Direct
 -0.0000000029676893 -0.0000000024869071  0.3394273408637324   T   T   T
  0.4999999996191904  0.4999999978212509  0.2939323596785540   T   T   T
 -0.0000000024226578 -0.0000000004870101  0.4320500425017231   T   T   T
  0.4999999982931532  0.4999999999337219  0.3862150084741968   T   T   T
  0.0000000000000000  0.0000000000000000  0.5227272727272734   F   F   F
  0.5000000000000000  0.5000000000000000  0.4772727272727266   F   F   F
  0.0000000030318402  0.0000000022730829  0.6137848630353147   T   T   T
  0.4999999998453608  0.5000000022975299  0.5679496015404250   T   T   T
  0.0000000024517483  0.0000000016053509  0.7060674000158569   T   T   T
  0.5000000026385852  0.5000000026829677  0.6605727813374008   T   T   T
 
  0.00000000E+00  0.00000000E+00  0.00000000E+00
  0.00000000E+00  0.00000000E+00  0.00000000E+00
  0.00000000E+00  0.00000000E+00  0.00000000E+00
  0.00000000E+00  0.00000000E+00  0.00000000E+00
  0.00000000E+00  0.00000000E+00  0.00000000E+00
  0.00000000E+00  0.00000000E+00  0.00000000E+00
  0.00000000E+00  0.00000000E+00  0.00000000E+00
  0.00000000E+00  0.00000000E+00  0.00000000E+00
  0.00000000E+00  0.00000000E+00  0.00000000E+00
  0.00000000E+00  0.00000000E+00  0.00000000E+00
