Fe8
1.0
   2.4518720798871745    0.0000000000000000    0.0000000000000002
  -0.8172906932957245    2.3116471657202466    0.0000000000000002
   0.0000000000000000    0.0000000000000000   32.0311227216004824
Fe
8
direct
   0.2500000000000000    0.7500000000000000    0.2812500000000000 Fe
   0.7500000000000000    0.2500000000000000    0.3437500000000000 Fe
   0.2500000000000000    0.7500000000000000    0.4062500000000000 Fe
   0.7500000000000000    0.2500000000000000    0.4687500000000000 Fe
   0.2500000000000000    0.7500000000000000    0.5312500000000000 Fe
   0.7500000000000000    0.2500000000000000    0.5937500000000000 Fe
   0.2500000000000000    0.7500000000000000    0.6562500000000000 Fe
   0.7500000000000000    0.2500000000000000    0.7187500000000000 Fe
