O2                                      
   1.00000000000000     
    21.1509299999999989    0.0000000000000000    0.0000000000000000
     0.0000000000000000   21.1509299999999989    0.0000000000000000
     0.0000000000000000    0.0000000000000000   21.1509299999999989
   O 
     2
Direct
  0.5291536595957175  0.4999999999783213  0.4999999999267501
  0.4708463404042825  0.5000000000216787  0.5000000000732499
 
  0.00000000E+00  0.00000000E+00  0.00000000E+00
  0.00000000E+00  0.00000000E+00  0.00000000E+00
