ALGO = Fast
EDIFF = 1e-06
EDIFFG = -0.02
ENCUT = 520.0
IBRION = 2
ISIF = 2
ISMEAR = 0
ISPIN = 2
ISYM = 0
IVDW = 11
LASPH = True
LCHARG = False
LDAU = False
LORBIT = 11
LREAL = False
LWAVE = False
# Triplet O2: enforce total spin moment ~2 μB (NUPDOWN = N_up - N_down = 2)
NUPDOWN = 2
MAGMOM = 2*1.0
NELM = 100
NSW = 500
PREC = Accurate
SIGMA = 0.01
NCORE = 8
