C1 O1
1.0
  31.1281220000000012    0.0000000000000000    0.0000000000000000
   0.0000000000000000   31.1281220000000012    0.0000000000000000
   0.0000000000000000    0.0000000000000000   31.1281220000000012
C O
1 1
direct
   0.5181206241738580    0.4999999999999999    0.4999999999999999 C
   0.4818793758261420    0.4999999999999999    0.4999999999999999 O
