C1 O1
1.0
  15.1281220000000012    0.0000000000000000    0.0000000000000000
   0.0000000000000000   16.1281220000000012    0.0000000000000000
   0.0000000000000000    0.0000000000000000   14.1281220000000012
C O
1 1
Cart
   7 8 8 C
   8.15 8 8 O
