mp-13 Fe scaled to 8.0 A^3/atom (V=16.000000 A^3; N=2)
1.0
   2.5198420997897464    0.0000000000000000    0.0000000000000002
   0.0000000000000004    2.5198420997897464    0.0000000000000002
   0.0000000000000000    0.0000000000000000    2.5198420997897464
Fe
2
direct
   0.0000000000000000    0.0000000000000000    0.0000000000000000 Fe
   0.5000000000000000    0.5000000000000000    0.5000000000000000 Fe
