Fe12
1.0
   2.8311780106827755    0.0000000000000000    0.0000000000000002
   0.0000000000000005    2.8311780106827755    0.0000000000000002
   0.0000000000000000    0.0000000000000000   33.9741361281933081
Fe
12
direct
   0.0000000000000000    0.0000000000000000    0.3125000000000001 Fe
   0.5000000000000000    0.5000000000000000    0.2708333333333334 Fe
   0.0000000000000000    0.0000000000000000    0.3958333333333334 Fe
   0.5000000000000000    0.5000000000000000    0.3541666666666667 Fe
   0.0000000000000000    0.0000000000000000    0.4791666666666667 Fe
   0.5000000000000000    0.5000000000000000    0.4375000000000001 Fe
   0.0000000000000000    0.0000000000000000    0.5625000000000001 Fe
   0.5000000000000000    0.5000000000000000    0.5208333333333335 Fe
   0.0000000000000000    0.0000000000000000    0.6458333333333335 Fe
   0.5000000000000000    0.5000000000000000    0.6041666666666667 Fe
   0.0000000000000000    0.0000000000000000    0.7291666666666667 Fe
   0.5000000000000000    0.5000000000000000    0.6875000000000001 Fe
