Fe7
1.0
   2.4294962518964969    0.0000000000000000    0.0000000000000001
  -0.8098320839654988    2.2905510327777514    0.0000000000000001
   0.0000000000000000    0.0000000000000000   29.7551307457532310
Fe
7
direct
   0.2500000000000029    0.7500000000000012    0.3000000000000002 Fe
   0.7500000000000032    0.2500000000000019    0.3666666666666668 Fe
   0.2500000000000039    0.7500000000000021    0.4333333333333333 Fe
  -0.2499999999999953    0.2500000000000029    0.5000000000000000 Fe
   0.2500000000000048   -0.2499999999999969    0.5666666666666668 Fe
  -0.2499999999999949    0.2500000000000033    0.6333333333333335 Fe
   0.2500000000000063   -0.2499999999999964    0.7000000000000001 Fe
