ALGO = Fast
EDIFF = 1e-06
EDIFFG = -0.01
ENCUT = 450
IBRION = 2
ISMEAR = 0
ISYM = 0
LCHARG = False
LWAVE = False
NCORE = 16
NSW = 500
SIGMA = 0.01
