O2 in 20x21x22 Angstrom box
1.0
20.0 0.0 0.0
0.0 21.0 0.0
0.0 0.0 22.0
O
2
Direct
0.50 0.50 0.50
0.56 0.50 0.50
