Al1 Si95 H11 C8 O192                    
   1.00000000000000     
    20.1094817252371136    0.0070473679037543    0.0206700111123847
     0.0070088637591417   19.9585180233430606   -0.0117710873804922
     0.0138152909543955   -0.0079126492652479   13.4569772611921934
   Al   Si   H    C    O 
     1    95    11     8   192
Selective dynamics
Direct
  0.3228610402062486  0.3276616075539991  0.6731259522262789   F   F   F
  0.4234398284941108  0.0540621253836591  0.1470589200997665   F   F   F
  0.3034622527450281  0.0253635994320618  0.2908090616337589   F   F   F
  0.2804750425735349  0.0606523436893411  0.5117585851118207   F   F   F
  0.1211473066812516  0.0670430778746862  0.5141603038378832   F   F   F
  0.0702184364701353  0.0307243973133566  0.3039100788154698   F   F   F
  0.1799401143685984  0.0543737238488262  0.1521575281920349   F   F   F
  0.4211162337587737  0.8270667884693168  0.1648869010219371   F   F   F
  0.3040421193650005  0.8682148152216556  0.3076112119175889   F   F   F
  0.2693466039978034  0.8249555027316333  0.5250725729260708   F   F   F
  0.1144424869354097  0.8247466241406940  0.5127380904651062   F   F   F
  0.0651649964828565  0.8734803165559484  0.3045962744126172   F   F   F
  0.1806586764345681  0.8323939670983052  0.1712806031496115   F   F   F
  0.0767958260187953  0.9428352219111034  0.6452106759138871   F   F   F
  0.1955121328381537  0.9707406652873090  0.7898643412170472   F   F   F
  0.2186969584221998  0.9380057978022833  0.0104500685922204   F   F   F
  0.3778831502878006  0.9333314566694639  0.0104635193545519   F   F   F
  0.4300265602025490  0.9692800727979787  0.8000680724477149   F   F   F
  0.3196990931006738  0.9427855886850409  0.6508945509459849   F   F   F
  0.0787047197721833  0.1720951691207731  0.6715782326332160   F   F   F
  0.1968028777061335  0.1276675055499084  0.8083735395575999   F   F   F
  0.2333561464947991  0.1707106008398753  0.0266509142123112   F   F   F
  0.3878875657721039  0.1722257082546506  0.0165314029881785   F   F   F
  0.4354485765639140  0.1275870044858181  0.8037572004936422   F   F   F
  0.3184069679808985  0.1675623708960146  0.6713367499847180   F   F   F
  0.5768960766778548  0.5566037161398540  0.8512409998894910   F   F   F
  0.6953800581338214  0.5298783987312916  0.7083882693007553   F   F   F
  0.7189832838359536  0.5577741024737009  0.4832430797311602   F   F   F
  0.8790353745987787  0.5667306416782907  0.4861627850980739   F   F   F
  0.9327953588113687  0.5301162427345432  0.6959165464904515   F   F   F
  0.8206611008491578  0.5634044061524577  0.8354603210118654   F   F   F
  0.5836430682815106  0.3272154786783261  0.8385536678268082   F   F   F
  0.6988261517653029  0.3708435166519735  0.7007590866344628   F   F   F
  0.7307757980033003  0.3298661561119971  0.4817318939941586   F   F   F
  0.8854107174682753  0.3260369423002203  0.4900123758624417   F   F   F
  0.9320443525346178  0.3731074014019740  0.7016153557383831   F   F   F
  0.8193051256648474  0.3277053486139110  0.8359377837908468   F   F   F
  0.9232448305322478  0.4406266826878351  0.3534498680128024   F   F   F
  0.8069631294074142  0.4681823862750747  0.2075049081629601   F   F   F
  0.7837203037701812  0.4432953845924175  0.9834127075358623   F   F   F
  0.6254839190065198  0.4353517251195029  0.9882234754052561   F   F   F
  0.5698073859580504  0.4702416992456406  0.1991039161410839   F   F   F
  0.6834144178661106  0.4355141865373042  0.3357890732775459   F   F   F
  0.9216054834879301  0.6726441322887524  0.3290153210689439   F   F   F
  0.8013799466703588  0.6273631659424552  0.2006874926175399   F   F   F
  0.7691481542661762  0.6688598690040735  0.9814503553612752   F   F   F
  0.6140549356252691  0.6721023414526144  0.9876369972247190   F   F   F
  0.5659264166949498  0.6281551564224017  0.2002943173462484   F   F   F
  0.6791669513088365  0.6716263870766284  0.3354339296827789   F   F   F
  0.5756334879214009  0.9403994896203400  0.8492139057031878   F   F   F
  0.6939092236325237  0.9698186833393549  0.7064546493376369   F   F   F
  0.7167420189575253  0.9429278834641650  0.4813066044309480   F   F   F
  0.8764196655485748  0.9337494329728173  0.4837861494160549   F   F   F
  0.9318222184412690  0.9671292820736070  0.6954181160775619   F   F   F
  0.8180478523201273  0.9346855746197562  0.8330034248561518   F   F   F
  0.5804697749647971  0.1731852360387478  0.8324695671070685   F   F   F
  0.6980518421881001  0.1287673024534257  0.6993867016555129   F   F   F
  0.7307438835575155  0.1690734775957168  0.4813003604857400   F   F   F
  0.8858789319684277  0.1719017282590229  0.4890963256090899   F   F   F
  0.9346997599261897  0.1254425859741417  0.7010454703684630   F   F   F
  0.8195786958865270  0.1710314147742764  0.8334987350220118   F   F   F
  0.9230074764109304  0.0578051564134157  0.3493660531067633   F   F   F
  0.8055294882204720  0.0305774332273074  0.2053059120780034   F   F   F
  0.7811913843882863  0.0556593983474940  0.9803308335331238   F   F   F
  0.6217407717078913  0.0632002096344237  0.9847334271924311   F   F   F
  0.5682318206842822  0.0297758832233583  0.1968408754338995   F   F   F
  0.6814942522842671  0.0644445105084728  0.3338514766525122   F   F   F
  0.9200298480258056  0.8272287695168785  0.3289758620933085   F   F   F
  0.8013363315255972  0.8714949823612699  0.1983286398460038   F   F   F
  0.7681159458044178  0.8297226162291409  0.9796582381819334   F   F   F
  0.6130462796575884  0.8256564426658954  0.9856286608104199   F   F   F
  0.5655116255398340  0.8718250248614083  0.1986915206149220   F   F   F
  0.6793089783177635  0.8277017500796191  0.3339719443670646   F   F   F
  0.4263043841676932  0.4435282812947960  0.1477480505654682   F   F   F
  0.3041131128179586  0.4746371750438740  0.2838784643024823   F   F   F
  0.2843774040045091  0.4376480445208202  0.5088857481346380   F   F   F
  0.1248163506885263  0.4288833893708812  0.5147905223768134   F   F   F
  0.0700154182568724  0.4680494114629141  0.3037821184788925   F   F   F
  0.1780732153952087  0.4421372572476159  0.1530863653331451   F   F   F
  0.4206338073750970  0.6733026314089940  0.1708272994735154   F   F   F
  0.3044814299649943  0.6335245545477690  0.3096918184650619   F   F   F
  0.2685903561412815  0.6669749979511508  0.5291988716086067   F   F   F
  0.1136823439405461  0.6710970086279815  0.5146914117632591   F   F   F
  0.0657591156875057  0.6265678870866438  0.3018373270174024   F   F   F
  0.1834809071794368  0.6748795762218052  0.1768066281255116   F   F   F
  0.0806042373740326  0.5547087429875077  0.6507394852462198   F   F   F
  0.1934666557241229  0.5296950800143989  0.8038421885576454   F   F   F
  0.2200148654794845  0.5639916319038463  0.0205135008055706   F   F   F
  0.3780416499877575  0.5646220770767343  0.0158349731088236   F   F   F
  0.4307044596715741  0.5294359815098346  0.8078253791421304   F   F   F
  0.3171273001101582  0.5532059774286111  0.6652853512423960   F   F   F
  0.0766357822522608  0.3276438142417817  0.6721287767291813   F   F   F
  0.1973801176614813  0.3743440696704425  0.8029293014133501   F   F   F
  0.2354368849817092  0.3275922997105880  0.0214052214911078   F   F   F
  0.3893059765373792  0.3254144335358546  0.0201571916280727   F   F   F
  0.4379196747832736  0.3725302012037872  0.8101765806103600   F   F   F
  0.3638304585908259  0.3550095231906454  0.5063119306563735   F   F   F
  0.4328727637428784  0.1308538211139236  0.4567527670857956   T   T   T
  0.4707348694815892  0.1502645266449818  0.3416531624514079   T   T   T
  0.3861989970766047  0.1716701901152504  0.3628288746738804   T   T   T
  0.5248675747056950  0.1931445731356831  0.5452922462335081   T   T   T
  0.5649861310542406  0.3017849876810601  0.6075849596246599   T   T   T
  0.5772914390012005  0.4397281179245240  0.5151271171784728   T   T   T
  0.4945706107792773  0.4687595943893612  0.5298096810649966   T   T   T
  0.5353916999972128  0.4268494990129739  0.6291715725796863   T   T   T
  0.4378613734342593  0.4040032475882711  0.4007873062843714   T   T   T
  0.3961161219012155  0.2946277276420588  0.3395396226309302   T   T   T
  0.4352981350054890  0.1687581221450856  0.3978014661433278   T   T   T
  0.4571301466626494  0.2353943393507976  0.4381348677684969   T   T   T
  0.5049997011087015  0.2393535369202127  0.5135402875316757   T   T   T
  0.5276731566978015  0.3008372845776321  0.5489915876318889   T   T   T
  0.5034303976165759  0.3614023192255189  0.5108264771212561   T   T   T
  0.5286917197633656  0.4276733775448420  0.5482386842208840   T   T   T
  0.4554133864966019  0.3577902933063726  0.4353389428887979   T   T   T
  0.4325310904643145  0.2958461193087643  0.3985913683688034   T   T   T
  0.3595603846778346  0.0590591438534673  0.2202794372661216   F   F   F
  0.3001485192024944  0.0662725070165351  0.3948826037414719   F   F   F
  0.2003985251731635  0.0545636941208301  0.5252757169811346   F   F   F
  0.1002054114764661  0.0721086838409164  0.3979812336858259   F   F   F
  0.1062160383955302  0.0536156271763062  0.2013393322661514   F   F   F
  0.2317313748117442  0.0292467402869079  0.2367205995860999   F   F   F
  0.3601815440194258  0.8293392779267137  0.2435714862441429   F   F   F
  0.3055396714313261  0.8378823967294551  0.4190182443697452   F   F   F
  0.1918973686916061  0.8483944782990420  0.5175511937188659   F   F   F
  0.0882904255193395  0.8284729251011669  0.3989052314631323   F   F   F
  0.1045798512415388  0.8477772845670515  0.2060172225395007   F   F   F
  0.2308664187390761  0.8570412835333698  0.2589440351143750   F   F   F
  0.3218568700279292  0.9474111603272277  0.3108774286931535   F   F   F
  0.0826252583318663  0.9515263076343246  0.3258699113781205   F   F   F
  0.4322650083962642  0.1243821601803106  0.0879039951894569   F   F   F
  0.4167392337039146  0.9941127153377707  0.0657886399775407   F   F   F
  0.3989826207732037  0.8628367490225486  0.0616996728828880   F   F   F
  0.1966221667988961  0.1299131441331980  0.1155037758829849   F   F   F
  0.1824481642950317  0.0037519538194530  0.0573421382780523   F   F   F
  0.1956737092857850  0.8705491706928115  0.0676204532809805   F   F   F
  0.9916664448101429  0.0461008201557362  0.2887057819537588   F   F   F
  0.9857370212352308  0.8651640177780209  0.2862140814027470   F   F   F
  0.1402977207609482  0.9367667805892808  0.7184072797269394   F   F   F
  0.1972178259965318  0.9307151180763995  0.8948834587669907   F   F   F
  0.2986820945025102  0.9467510667772103  0.0218122974961830   F   F   F
  0.3987478326208205  0.9289775761668650  0.8943140457837373   F   F   F
  0.3939028488921181  0.9461988681597049  0.6978383040752405   F   F   F
  0.2679406907921873  0.9650098275406904  0.7375672597228800   F   F   F
  0.1399472272152451  0.1690204500926029  0.7492723904421581   F   F   F
  0.1975533589007270  0.1554689760995487  0.9214240013550565   F   F   F
  0.3108732779231573  0.1471519864228270  0.0209042014283938   F   F   F
  0.4139570191113577  0.1690088484164534  0.9027188380834161   F   F   F
  0.3950373179241637  0.1543079553748399  0.7076655094013518   F   F   F
  0.2692983470347343  0.1364656723260183  0.7571335149058172   F   F   F
  0.1767982881045000  0.0487523740524196  0.8085283061763704   F   F   F
  0.4198578963048689  0.0486725633525040  0.8212040958485218   F   F   F
  0.0698822131709065  0.8733138117557857  0.5829158281192477   F   F   F
  0.0829056173340916  0.0048778432379351  0.5673607615761398   F   F   F
  0.0997903944489380  0.1370727286606765  0.5668252746590241   F   F   F
  0.3056898994561479  0.8667630722941553  0.6129375143003841   F   F   F
  0.3145232441740191  0.9930887570552756  0.5563245516597348   F   F   F
  0.3075870140572334  0.1268538500142853  0.5673589949858240   F   F   F
  0.5082980818560969  0.9517357213903992  0.7856715318199434   F   F   F
  0.5147606404867560  0.1383308724994734  0.7847711480254418   F   F   F
  0.6383674340676393  0.5667402788089930  0.7741580785750770   F   F   F
  0.6858963309548898  0.5502105945843496  0.5927278090006567   F   F   F
  0.7991549507808742  0.5587338041205996  0.4911368307707704   F   F   F
  0.9092594233524665  0.5699565777621629  0.5971856627989496   F   F   F
  0.8961259423161110  0.5626571568829704  0.7922501419687080   F   F   F
  0.7689641116160431  0.5533486857903611  0.7436295674679769   F   F   F
  0.6392497846010983  0.3279282778109618  0.7505908514614816   F   F   F
  0.6964907168287411  0.3590005344541183  0.5820178580062461   F   F   F
  0.8087513882874617  0.3515675287528808  0.4803521429834277   F   F   F
  0.9088294496636280  0.3304664982083736  0.6049158679352757   F   F   F
  0.8949046681813329  0.3441853692272048  0.8001633019024936   F   F   F
  0.7701328165992152  0.3461465481185542  0.7436755254080012   F   F   F
  0.6875341397051002  0.4496152230659263  0.7253563052241248   F   F   F
  0.9125448042508850  0.4514341106821149  0.6852071399125492   F   F   F
  0.5686918919204658  0.6238413194411905  0.9186038492125377   F   F   F
  0.5883463450150899  0.4928220084852342  0.9239023445488712   F   F   F
  0.6142973086465062  0.3623644180942165  0.9375578321037921   F   F   F
  0.8074678802152064  0.6356393716854782  0.8874556027053657   F   F   F
  0.8129410831088393  0.5031057616888148  0.9151169198362723   F   F   F
  0.8007321394364197  0.3708933947575872  0.9344371485354372   F   F   F
  0.0125413372272618  0.5376683350441454  0.7102913672825579   F   F   F
  0.0114867274011630  0.3653805343310736  0.7174574865234149   F   F   F
  0.8627556602389106  0.4313991317771340  0.2750764551767020   F   F   F
  0.8183034509821780  0.4477413731079452  0.0921668716383053   F   F   F
  0.7040120601851996  0.4528707660178597  0.9941954741163386   F   F   F
  0.5942727248496880  0.4322074216198928  0.0990437297924558   F   F   F
  0.6075725807366297  0.4402988389624056  0.2957602465444893   F   F   F
  0.7333065628850051  0.4435889917279070  0.2412624115879325   F   F   F
  0.8613789830457463  0.6702158710015169  0.2492044606376140   F   F   F
  0.8023830588755487  0.6397052869740065  0.0821230101039916   F   F   F
  0.6910816187173197  0.6475433641721864  0.9793129063404535   F   F   F
  0.5895363551889048  0.6689209922203432  0.1022787006245593   F   F   F
  0.6034125926974312  0.6589989176228670  0.2970561111619361   F   F   F
  0.7301865773217315  0.6513318921900151  0.2459168944889285   F   F   F
  0.8133763131583507  0.5485965355894038  0.2246445105385320   F   F   F
  0.5856498649222175  0.5497332200592382  0.1877384713126631   F   F   F
  0.9314772189975997  0.3729748120869445  0.4195310072067002   F   F   F
  0.9108181216457325  0.5035282666730865  0.4273634591183821   F   F   F
  0.8992127230212716  0.6360958123572331  0.4314250109127826   F   F   F
  0.6933687891275824  0.3626139363344194  0.3868946507271005   F   F   F
  0.6964332028405593  0.4941933030283963  0.4166608469672255   F   F   F
  0.6929864480730217  0.6271942184142887  0.4341263462053604   F   F   F
  0.4908754009536054  0.4576015363106904  0.2167872177790287   F   F   F
  0.4860638287181800  0.6357840822827896  0.2153427959361238   F   F   F
  0.6378584760189625  0.9325342226004665  0.7731158712146211   F   F   F
  0.6833587633994469  0.9501517802594037  0.5907096756200687   F   F   F
  0.7969294497170125  0.9454741351089595  0.4896032941108430   F   F   F
  0.9069843407683535  0.9303461153265431  0.5946229962371419   F   F   F
  0.8935610126095028  0.9356531030759569  0.7907925873738790   F   F   F
  0.7675223616700606  0.9453279675788551  0.7399612400106861   F   F   F
  0.6386489102172419  0.1723456891578650  0.7486530926717236   F   F   F
  0.6953248858254071  0.1398196595438321  0.5804877259146792   F   F   F
  0.8087614098525222  0.1472843331950742  0.4822142080719942   F   F   F
  0.9121086022344898  0.1663625458536515  0.6024855761963082   F   F   F
  0.8953117520480731  0.1554048947846738  0.7971804464613683   F   F   F
  0.7696654399722433  0.1535533935275879  0.7415600512910032   F   F   F
  0.6867327983888387  0.0501110554538897  0.7250758782841302   F   F   F
  0.9161353533092935  0.0468761026369293  0.6866648248498493   F   F   F
  0.5677328274543356  0.8720261970106336  0.9137541421747599   F   F   F
  0.5857373748283266  0.0027460137330806  0.9251289293600067   F   F   F
  0.6056895366930917  0.1340069942534114  0.9311288569420313   F   F   F
  0.8051402476290761  0.8621985219941593  0.8841403048255430   F   F   F
  0.8090037555218288  0.9943251988826489  0.9135387840229257   F   F   F
  0.8014099834224098  0.1269973467776069  0.9310852755393384   F   F   F
  0.0105349079180499  0.9536074989251304  0.7122104334982140   F   F   F
  0.0141577875848995  0.1341140431614960  0.7188912643748964   F   F   F
  0.8625461706856967  0.0673125079710957  0.2707740163554035   F   F   F
  0.8149134346186813  0.0505958510351547  0.0895385481751276   F   F   F
  0.7010591084312452  0.0495505443386861  0.9886220748642600   F   F   F
  0.5922603112243365  0.0675520758985400  0.0964697975141249   F   F   F
  0.6058094852634639  0.0620261249878666  0.2923075534903106   F   F   F
  0.7321685364990884  0.0551876035079033  0.2404724555973843   F   F   F
  0.8624391491110686  0.8289559452893656  0.2447059810513394   F   F   F
  0.8014998510293623  0.8601137720968381  0.0794719081882533   F   F   F
  0.6899192426248959  0.8505019292835811  0.9779049652444343   F   F   F
  0.5880740389213344  0.8311261621108628  0.0998234285089197   F   F   F
  0.6037469045743933  0.8405688949375474  0.2945956537236114   F   F   F
  0.7307935161070631  0.8465299933573149  0.2444861742165187   F   F   F
  0.8123282627381911  0.9502804198162806  0.2231769115354467   F   F   F
  0.5854201479466710  0.9503199748999336  0.1871492578104537   F   F   F
  0.9304823067018475  0.1254165256938222  0.4158946540877722   F   F   F
  0.9103930295812503  0.9946380965220953  0.4226411837554096   F   F   F
  0.8930069590188410  0.8628706258498156  0.4298859107165427   F   F   F
  0.6937853739246478  0.1368945869374087  0.3855575409221501   F   F   F
  0.6916374260523668  0.0049232039921563  0.4138980595339774   F   F   F
  0.6934045748974285  0.8723842071400583  0.4324745509618779   F   F   F
  0.4891068927329840  0.0410620804486683  0.2143396059176155   F   F   F
  0.4855670687620943  0.8640861230043058  0.2137571382635812   F   F   F
  0.3616194200072300  0.4385055325051397  0.2195323073308089   F   F   F
  0.3097459952857236  0.4458495098019384  0.3962715601930142   F   F   F
  0.2058199166223176  0.4264923275979697  0.5185001301602199   F   F   F
  0.1007241164866528  0.4304762065351824  0.4004212611602469   F   F   F
  0.1049307275623903  0.4394972606316614  0.2036298079451058   F   F   F
  0.2314729516329024  0.4558183246171481  0.2416849956862137   F   F   F
  0.3635904632951963  0.6752179108787999  0.2564664649301704   F   F   F
  0.3084282709174246  0.6460248070665813  0.4284520820600548   F   F   F
  0.1908178887986551  0.6458327709526444  0.5167241787952506   F   F   F
  0.0855676204679980  0.6667293017456757  0.4022449723997141   F   F   F
  0.1073766441225743  0.6566208667932472  0.2081182462571221   F   F   F
  0.2318179484854710  0.6573960599317843  0.2705750188902911   F   F   F
  0.3154894161101893  0.5548148064328728  0.2834936534936574   F   F   F
  0.0837232034355679  0.5478828888713423  0.3159043699094894   F   F   F
  0.4354959979966964  0.3723321871894996  0.0909010566473825   F   F   F
  0.4191791870928228  0.5037868682088771  0.0673925073610917   F   F   F
  0.3933595456611627  0.6346024214205954  0.0728588423640986   F   F   F
  0.1915146529808425  0.3710303979302481  0.0994135492516364   F   F   F
  0.1805389796815504  0.5026771623575783  0.0730578719800690   F   F   F
  0.2055881791726861  0.6336223710309952  0.0784971918231960   F   F   F
  0.9913731477073782  0.4529908298664651  0.2920601228726483   F   F   F
  0.9866759603547663  0.6360483491828504  0.2808037008573265   F   F   F
  0.1401428614545424  0.5649143460302355  0.7301271891889982   F   F   F
  0.1934477801587704  0.5715672978948945  0.9074571996879470   F   F   F
  0.2992152151170160  0.5473646111140056  0.0225315556017804   F   F   F
  0.4017113270566952  0.5728014908047285  0.9012155255091372   F   F   F
  0.3927828710448935  0.5512262746773118  0.7061125554376275   F   F   F
  0.2673251533842489  0.5344483805544513  0.7553942159680176   F   F   F
  0.1357881253207935  0.3343236128946288  0.7519954629874164   F   F   F
  0.2095403392525270  0.3375800758245404  0.9090851153462012   F   F   F
  0.3127238332053182  0.3516142748343896  0.0296782614424913   F   F   F
  0.4143161187846687  0.3289270727581268  0.9063716182381825   F   F   F
  0.4024263200384155  0.3449338901069510  0.7124319204984246   F   F   F
  0.2621286716497195  0.3732045812896274  0.7333627350877308   F   F   F
  0.1741275656836834  0.4519051102357352  0.8233919047748159   F   F   F
  0.4193523408547506  0.4508669186498011  0.8323013254504090   F   F   F
  0.0703054245538510  0.6235912570418236  0.5881374778520509   F   F   F
  0.0987037647363920  0.4947203909800137  0.5734169081602261   F   F   F
  0.0966307254160910  0.3613908932858010  0.5658944424370915   F   F   F
  0.3010983345843101  0.6272419081090916  0.6221249639651347   F   F   F
  0.3101116561480950  0.4991850423310282  0.5750242723349217   F   F   F
  0.3230877138453039  0.3666609349552985  0.5460278446464315   F   F   F
  0.5088903880404132  0.5457886562119114  0.7888840919814513   F   F   F
  0.5187378146269168  0.3673475053762729  0.7997846252389706   F   F   F
  0.4390102930834274  0.7495503496585343  0.1397404709434866   F   F   F
  0.1900285489044720  0.7532960036897549  0.1497874957950103   F   F   F
  0.2751449610987464  0.7461694353030097  0.5523682079069943   F   F   F
  0.1074273730749837  0.7481616225062311  0.5522429778944868   F   F   F
  0.0599151356775991  0.2496434268877508  0.6500007198358944   F   F   F
  0.3041121852372370  0.2451329627202838  0.6535102609604095   F   F   F
  0.2282135766997015  0.2496438713069296  0.0533112354040028   F   F   F
  0.3948575970804171  0.2483442381693521  0.0579343133736359   F   F   F
  0.5651289634700660  0.2500867038398837  0.8642151538414495   F   F   F
  0.8122623733906451  0.2492081647137425  0.8645878489407650   F   F   F
  0.7230645195575747  0.2495050957980709  0.4765067184490732   F   F   F
  0.8923294184690747  0.2490908841719133  0.4527300467686644   F   F   F
  0.9384333837602910  0.7501084218034109  0.3546980247130094   F   F   F
  0.6885938830405394  0.7497678314170670  0.3651963746678746   F   F   F
  0.7771778108488405  0.7493024561891914  0.9760174384825717   F   F   F
  0.6064529966205967  0.7485712102647852  0.9487362703527538   F   F   F
 
  0.00000000E+00  0.00000000E+00  0.00000000E+00
  0.00000000E+00  0.00000000E+00  0.00000000E+00
  0.00000000E+00  0.00000000E+00  0.00000000E+00
  0.00000000E+00  0.00000000E+00  0.00000000E+00
  0.00000000E+00  0.00000000E+00  0.00000000E+00
  0.00000000E+00  0.00000000E+00  0.00000000E+00
  0.00000000E+00  0.00000000E+00  0.00000000E+00
  0.00000000E+00  0.00000000E+00  0.00000000E+00
  0.00000000E+00  0.00000000E+00  0.00000000E+00
  0.00000000E+00  0.00000000E+00  0.00000000E+00
  0.00000000E+00  0.00000000E+00  0.00000000E+00
  0.00000000E+00  0.00000000E+00  0.00000000E+00
  0.00000000E+00  0.00000000E+00  0.00000000E+00
  0.00000000E+00  0.00000000E+00  0.00000000E+00
  0.00000000E+00  0.00000000E+00  0.00000000E+00
  0.00000000E+00  0.00000000E+00  0.00000000E+00
  0.00000000E+00  0.00000000E+00  0.00000000E+00
  0.00000000E+00  0.00000000E+00  0.00000000E+00
  0.00000000E+00  0.00000000E+00  0.00000000E+00
  0.00000000E+00  0.00000000E+00  0.00000000E+00
  0.00000000E+00  0.00000000E+00  0.00000000E+00
  0.00000000E+00  0.00000000E+00  0.00000000E+00
  0.00000000E+00  0.00000000E+00  0.00000000E+00
  0.00000000E+00  0.00000000E+00  0.00000000E+00
  0.00000000E+00  0.00000000E+00  0.00000000E+00
  0.00000000E+00  0.00000000E+00  0.00000000E+00
  0.00000000E+00  0.00000000E+00  0.00000000E+00
  0.00000000E+00  0.00000000E+00  0.00000000E+00
  0.00000000E+00  0.00000000E+00  0.00000000E+00
  0.00000000E+00  0.00000000E+00  0.00000000E+00
  0.00000000E+00  0.00000000E+00  0.00000000E+00
  0.00000000E+00  0.00000000E+00  0.00000000E+00
  0.00000000E+00  0.00000000E+00  0.00000000E+00
  0.00000000E+00  0.00000000E+00  0.00000000E+00
  0.00000000E+00  0.00000000E+00  0.00000000E+00
  0.00000000E+00  0.00000000E+00  0.00000000E+00
  0.00000000E+00  0.00000000E+00  0.00000000E+00
  0.00000000E+00  0.00000000E+00  0.00000000E+00
  0.00000000E+00  0.00000000E+00  0.00000000E+00
  0.00000000E+00  0.00000000E+00  0.00000000E+00
  0.00000000E+00  0.00000000E+00  0.00000000E+00
  0.00000000E+00  0.00000000E+00  0.00000000E+00
  0.00000000E+00  0.00000000E+00  0.00000000E+00
  0.00000000E+00  0.00000000E+00  0.00000000E+00
  0.00000000E+00  0.00000000E+00  0.00000000E+00
  0.00000000E+00  0.00000000E+00  0.00000000E+00
  0.00000000E+00  0.00000000E+00  0.00000000E+00
  0.00000000E+00  0.00000000E+00  0.00000000E+00
  0.00000000E+00  0.00000000E+00  0.00000000E+00
  0.00000000E+00  0.00000000E+00  0.00000000E+00
  0.00000000E+00  0.00000000E+00  0.00000000E+00
  0.00000000E+00  0.00000000E+00  0.00000000E+00
  0.00000000E+00  0.00000000E+00  0.00000000E+00
  0.00000000E+00  0.00000000E+00  0.00000000E+00
  0.00000000E+00  0.00000000E+00  0.00000000E+00
  0.00000000E+00  0.00000000E+00  0.00000000E+00
  0.00000000E+00  0.00000000E+00  0.00000000E+00
  0.00000000E+00  0.00000000E+00  0.00000000E+00
  0.00000000E+00  0.00000000E+00  0.00000000E+00
  0.00000000E+00  0.00000000E+00  0.00000000E+00
  0.00000000E+00  0.00000000E+00  0.00000000E+00
  0.00000000E+00  0.00000000E+00  0.00000000E+00
  0.00000000E+00  0.00000000E+00  0.00000000E+00
  0.00000000E+00  0.00000000E+00  0.00000000E+00
  0.00000000E+00  0.00000000E+00  0.00000000E+00
  0.00000000E+00  0.00000000E+00  0.00000000E+00
  0.00000000E+00  0.00000000E+00  0.00000000E+00
  0.00000000E+00  0.00000000E+00  0.00000000E+00
  0.00000000E+00  0.00000000E+00  0.00000000E+00
  0.00000000E+00  0.00000000E+00  0.00000000E+00
  0.00000000E+00  0.00000000E+00  0.00000000E+00
  0.00000000E+00  0.00000000E+00  0.00000000E+00
  0.00000000E+00  0.00000000E+00  0.00000000E+00
  0.00000000E+00  0.00000000E+00  0.00000000E+00
  0.00000000E+00  0.00000000E+00  0.00000000E+00
  0.00000000E+00  0.00000000E+00  0.00000000E+00
  0.00000000E+00  0.00000000E+00  0.00000000E+00
  0.00000000E+00  0.00000000E+00  0.00000000E+00
  0.00000000E+00  0.00000000E+00  0.00000000E+00
  0.00000000E+00  0.00000000E+00  0.00000000E+00
  0.00000000E+00  0.00000000E+00  0.00000000E+00
  0.00000000E+00  0.00000000E+00  0.00000000E+00
  0.00000000E+00  0.00000000E+00  0.00000000E+00
  0.00000000E+00  0.00000000E+00  0.00000000E+00
  0.00000000E+00  0.00000000E+00  0.00000000E+00
  0.00000000E+00  0.00000000E+00  0.00000000E+00
  0.00000000E+00  0.00000000E+00  0.00000000E+00
  0.00000000E+00  0.00000000E+00  0.00000000E+00
  0.00000000E+00  0.00000000E+00  0.00000000E+00
  0.00000000E+00  0.00000000E+00  0.00000000E+00
  0.00000000E+00  0.00000000E+00  0.00000000E+00
  0.00000000E+00  0.00000000E+00  0.00000000E+00
  0.00000000E+00  0.00000000E+00  0.00000000E+00
  0.00000000E+00  0.00000000E+00  0.00000000E+00
  0.00000000E+00  0.00000000E+00  0.00000000E+00
  0.00000000E+00  0.00000000E+00  0.00000000E+00
  0.00000000E+00  0.00000000E+00  0.00000000E+00
  0.00000000E+00  0.00000000E+00  0.00000000E+00
  0.00000000E+00  0.00000000E+00  0.00000000E+00
  0.00000000E+00  0.00000000E+00  0.00000000E+00
  0.00000000E+00  0.00000000E+00  0.00000000E+00
  0.00000000E+00  0.00000000E+00  0.00000000E+00
  0.00000000E+00  0.00000000E+00  0.00000000E+00
  0.00000000E+00  0.00000000E+00  0.00000000E+00
  0.00000000E+00  0.00000000E+00  0.00000000E+00
  0.00000000E+00  0.00000000E+00  0.00000000E+00
  0.00000000E+00  0.00000000E+00  0.00000000E+00
  0.00000000E+00  0.00000000E+00  0.00000000E+00
  0.00000000E+00  0.00000000E+00  0.00000000E+00
  0.00000000E+00  0.00000000E+00  0.00000000E+00
  0.00000000E+00  0.00000000E+00  0.00000000E+00
  0.00000000E+00  0.00000000E+00  0.00000000E+00
  0.00000000E+00  0.00000000E+00  0.00000000E+00
  0.00000000E+00  0.00000000E+00  0.00000000E+00
  0.00000000E+00  0.00000000E+00  0.00000000E+00
  0.00000000E+00  0.00000000E+00  0.00000000E+00
  0.00000000E+00  0.00000000E+00  0.00000000E+00
  0.00000000E+00  0.00000000E+00  0.00000000E+00
  0.00000000E+00  0.00000000E+00  0.00000000E+00
  0.00000000E+00  0.00000000E+00  0.00000000E+00
  0.00000000E+00  0.00000000E+00  0.00000000E+00
  0.00000000E+00  0.00000000E+00  0.00000000E+00
  0.00000000E+00  0.00000000E+00  0.00000000E+00
  0.00000000E+00  0.00000000E+00  0.00000000E+00
  0.00000000E+00  0.00000000E+00  0.00000000E+00
  0.00000000E+00  0.00000000E+00  0.00000000E+00
  0.00000000E+00  0.00000000E+00  0.00000000E+00
  0.00000000E+00  0.00000000E+00  0.00000000E+00
  0.00000000E+00  0.00000000E+00  0.00000000E+00
  0.00000000E+00  0.00000000E+00  0.00000000E+00
  0.00000000E+00  0.00000000E+00  0.00000000E+00
  0.00000000E+00  0.00000000E+00  0.00000000E+00
  0.00000000E+00  0.00000000E+00  0.00000000E+00
  0.00000000E+00  0.00000000E+00  0.00000000E+00
  0.00000000E+00  0.00000000E+00  0.00000000E+00
  0.00000000E+00  0.00000000E+00  0.00000000E+00
  0.00000000E+00  0.00000000E+00  0.00000000E+00
  0.00000000E+00  0.00000000E+00  0.00000000E+00
  0.00000000E+00  0.00000000E+00  0.00000000E+00
  0.00000000E+00  0.00000000E+00  0.00000000E+00
  0.00000000E+00  0.00000000E+00  0.00000000E+00
  0.00000000E+00  0.00000000E+00  0.00000000E+00
  0.00000000E+00  0.00000000E+00  0.00000000E+00
  0.00000000E+00  0.00000000E+00  0.00000000E+00
  0.00000000E+00  0.00000000E+00  0.00000000E+00
  0.00000000E+00  0.00000000E+00  0.00000000E+00
  0.00000000E+00  0.00000000E+00  0.00000000E+00
  0.00000000E+00  0.00000000E+00  0.00000000E+00
  0.00000000E+00  0.00000000E+00  0.00000000E+00
  0.00000000E+00  0.00000000E+00  0.00000000E+00
  0.00000000E+00  0.00000000E+00  0.00000000E+00
  0.00000000E+00  0.00000000E+00  0.00000000E+00
  0.00000000E+00  0.00000000E+00  0.00000000E+00
  0.00000000E+00  0.00000000E+00  0.00000000E+00
  0.00000000E+00  0.00000000E+00  0.00000000E+00
  0.00000000E+00  0.00000000E+00  0.00000000E+00
  0.00000000E+00  0.00000000E+00  0.00000000E+00
  0.00000000E+00  0.00000000E+00  0.00000000E+00
  0.00000000E+00  0.00000000E+00  0.00000000E+00
  0.00000000E+00  0.00000000E+00  0.00000000E+00
  0.00000000E+00  0.00000000E+00  0.00000000E+00
  0.00000000E+00  0.00000000E+00  0.00000000E+00
  0.00000000E+00  0.00000000E+00  0.00000000E+00
  0.00000000E+00  0.00000000E+00  0.00000000E+00
  0.00000000E+00  0.00000000E+00  0.00000000E+00
  0.00000000E+00  0.00000000E+00  0.00000000E+00
  0.00000000E+00  0.00000000E+00  0.00000000E+00
  0.00000000E+00  0.00000000E+00  0.00000000E+00
  0.00000000E+00  0.00000000E+00  0.00000000E+00
  0.00000000E+00  0.00000000E+00  0.00000000E+00
  0.00000000E+00  0.00000000E+00  0.00000000E+00
  0.00000000E+00  0.00000000E+00  0.00000000E+00
  0.00000000E+00  0.00000000E+00  0.00000000E+00
  0.00000000E+00  0.00000000E+00  0.00000000E+00
  0.00000000E+00  0.00000000E+00  0.00000000E+00
  0.00000000E+00  0.00000000E+00  0.00000000E+00
  0.00000000E+00  0.00000000E+00  0.00000000E+00
  0.00000000E+00  0.00000000E+00  0.00000000E+00
  0.00000000E+00  0.00000000E+00  0.00000000E+00
  0.00000000E+00  0.00000000E+00  0.00000000E+00
  0.00000000E+00  0.00000000E+00  0.00000000E+00
  0.00000000E+00  0.00000000E+00  0.00000000E+00
  0.00000000E+00  0.00000000E+00  0.00000000E+00
  0.00000000E+00  0.00000000E+00  0.00000000E+00
  0.00000000E+00  0.00000000E+00  0.00000000E+00
  0.00000000E+00  0.00000000E+00  0.00000000E+00
  0.00000000E+00  0.00000000E+00  0.00000000E+00
  0.00000000E+00  0.00000000E+00  0.00000000E+00
  0.00000000E+00  0.00000000E+00  0.00000000E+00
  0.00000000E+00  0.00000000E+00  0.00000000E+00
  0.00000000E+00  0.00000000E+00  0.00000000E+00
  0.00000000E+00  0.00000000E+00  0.00000000E+00
  0.00000000E+00  0.00000000E+00  0.00000000E+00
  0.00000000E+00  0.00000000E+00  0.00000000E+00
  0.00000000E+00  0.00000000E+00  0.00000000E+00
  0.00000000E+00  0.00000000E+00  0.00000000E+00
  0.00000000E+00  0.00000000E+00  0.00000000E+00
  0.00000000E+00  0.00000000E+00  0.00000000E+00
  0.00000000E+00  0.00000000E+00  0.00000000E+00
  0.00000000E+00  0.00000000E+00  0.00000000E+00
  0.00000000E+00  0.00000000E+00  0.00000000E+00
  0.00000000E+00  0.00000000E+00  0.00000000E+00
  0.00000000E+00  0.00000000E+00  0.00000000E+00
  0.00000000E+00  0.00000000E+00  0.00000000E+00
  0.00000000E+00  0.00000000E+00  0.00000000E+00
  0.00000000E+00  0.00000000E+00  0.00000000E+00
  0.00000000E+00  0.00000000E+00  0.00000000E+00
  0.00000000E+00  0.00000000E+00  0.00000000E+00
  0.00000000E+00  0.00000000E+00  0.00000000E+00
  0.00000000E+00  0.00000000E+00  0.00000000E+00
  0.00000000E+00  0.00000000E+00  0.00000000E+00
  0.00000000E+00  0.00000000E+00  0.00000000E+00
  0.00000000E+00  0.00000000E+00  0.00000000E+00
  0.00000000E+00  0.00000000E+00  0.00000000E+00
  0.00000000E+00  0.00000000E+00  0.00000000E+00
  0.00000000E+00  0.00000000E+00  0.00000000E+00
  0.00000000E+00  0.00000000E+00  0.00000000E+00
  0.00000000E+00  0.00000000E+00  0.00000000E+00
  0.00000000E+00  0.00000000E+00  0.00000000E+00
  0.00000000E+00  0.00000000E+00  0.00000000E+00
  0.00000000E+00  0.00000000E+00  0.00000000E+00
  0.00000000E+00  0.00000000E+00  0.00000000E+00
  0.00000000E+00  0.00000000E+00  0.00000000E+00
  0.00000000E+00  0.00000000E+00  0.00000000E+00
  0.00000000E+00  0.00000000E+00  0.00000000E+00
  0.00000000E+00  0.00000000E+00  0.00000000E+00
  0.00000000E+00  0.00000000E+00  0.00000000E+00
  0.00000000E+00  0.00000000E+00  0.00000000E+00
  0.00000000E+00  0.00000000E+00  0.00000000E+00
  0.00000000E+00  0.00000000E+00  0.00000000E+00
  0.00000000E+00  0.00000000E+00  0.00000000E+00
  0.00000000E+00  0.00000000E+00  0.00000000E+00
  0.00000000E+00  0.00000000E+00  0.00000000E+00
  0.00000000E+00  0.00000000E+00  0.00000000E+00
  0.00000000E+00  0.00000000E+00  0.00000000E+00
  0.00000000E+00  0.00000000E+00  0.00000000E+00
  0.00000000E+00  0.00000000E+00  0.00000000E+00
  0.00000000E+00  0.00000000E+00  0.00000000E+00
  0.00000000E+00  0.00000000E+00  0.00000000E+00
  0.00000000E+00  0.00000000E+00  0.00000000E+00
  0.00000000E+00  0.00000000E+00  0.00000000E+00
  0.00000000E+00  0.00000000E+00  0.00000000E+00
  0.00000000E+00  0.00000000E+00  0.00000000E+00
  0.00000000E+00  0.00000000E+00  0.00000000E+00
  0.00000000E+00  0.00000000E+00  0.00000000E+00
  0.00000000E+00  0.00000000E+00  0.00000000E+00
  0.00000000E+00  0.00000000E+00  0.00000000E+00
  0.00000000E+00  0.00000000E+00  0.00000000E+00
  0.00000000E+00  0.00000000E+00  0.00000000E+00
  0.00000000E+00  0.00000000E+00  0.00000000E+00
  0.00000000E+00  0.00000000E+00  0.00000000E+00
  0.00000000E+00  0.00000000E+00  0.00000000E+00
  0.00000000E+00  0.00000000E+00  0.00000000E+00
  0.00000000E+00  0.00000000E+00  0.00000000E+00
  0.00000000E+00  0.00000000E+00  0.00000000E+00
  0.00000000E+00  0.00000000E+00  0.00000000E+00
  0.00000000E+00  0.00000000E+00  0.00000000E+00
  0.00000000E+00  0.00000000E+00  0.00000000E+00
  0.00000000E+00  0.00000000E+00  0.00000000E+00
  0.00000000E+00  0.00000000E+00  0.00000000E+00
  0.00000000E+00  0.00000000E+00  0.00000000E+00
  0.00000000E+00  0.00000000E+00  0.00000000E+00
  0.00000000E+00  0.00000000E+00  0.00000000E+00
  0.00000000E+00  0.00000000E+00  0.00000000E+00
  0.00000000E+00  0.00000000E+00  0.00000000E+00
  0.00000000E+00  0.00000000E+00  0.00000000E+00
  0.00000000E+00  0.00000000E+00  0.00000000E+00
  0.00000000E+00  0.00000000E+00  0.00000000E+00
  0.00000000E+00  0.00000000E+00  0.00000000E+00
  0.00000000E+00  0.00000000E+00  0.00000000E+00
  0.00000000E+00  0.00000000E+00  0.00000000E+00
  0.00000000E+00  0.00000000E+00  0.00000000E+00
  0.00000000E+00  0.00000000E+00  0.00000000E+00
  0.00000000E+00  0.00000000E+00  0.00000000E+00
  0.00000000E+00  0.00000000E+00  0.00000000E+00
  0.00000000E+00  0.00000000E+00  0.00000000E+00
  0.00000000E+00  0.00000000E+00  0.00000000E+00
  0.00000000E+00  0.00000000E+00  0.00000000E+00
  0.00000000E+00  0.00000000E+00  0.00000000E+00
  0.00000000E+00  0.00000000E+00  0.00000000E+00
  0.00000000E+00  0.00000000E+00  0.00000000E+00
  0.00000000E+00  0.00000000E+00  0.00000000E+00
  0.00000000E+00  0.00000000E+00  0.00000000E+00
  0.00000000E+00  0.00000000E+00  0.00000000E+00
  0.00000000E+00  0.00000000E+00  0.00000000E+00
  0.00000000E+00  0.00000000E+00  0.00000000E+00
  0.00000000E+00  0.00000000E+00  0.00000000E+00
  0.00000000E+00  0.00000000E+00  0.00000000E+00
  0.00000000E+00  0.00000000E+00  0.00000000E+00
  0.00000000E+00  0.00000000E+00  0.00000000E+00
  0.00000000E+00  0.00000000E+00  0.00000000E+00
  0.00000000E+00  0.00000000E+00  0.00000000E+00
  0.00000000E+00  0.00000000E+00  0.00000000E+00
  0.00000000E+00  0.00000000E+00  0.00000000E+00
  0.00000000E+00  0.00000000E+00  0.00000000E+00
  0.00000000E+00  0.00000000E+00  0.00000000E+00
  0.00000000E+00  0.00000000E+00  0.00000000E+00
  0.00000000E+00  0.00000000E+00  0.00000000E+00
  0.00000000E+00  0.00000000E+00  0.00000000E+00
  0.00000000E+00  0.00000000E+00  0.00000000E+00
  0.00000000E+00  0.00000000E+00  0.00000000E+00
  0.00000000E+00  0.00000000E+00  0.00000000E+00
  0.00000000E+00  0.00000000E+00  0.00000000E+00
  0.00000000E+00  0.00000000E+00  0.00000000E+00
  0.00000000E+00  0.00000000E+00  0.00000000E+00
  0.00000000E+00  0.00000000E+00  0.00000000E+00
  0.00000000E+00  0.00000000E+00  0.00000000E+00
