 307 307   0   0
  0.1759291E+02  0.2010949E-08  0.1995852E-08  0.1345699E-08  0.1500000E-16
  1.000000000000000E-004
  CAR 
 unknown system                          
     10.51751986    -22.84495546  301      0.62693603      1.00000000
    -22.845  0.0000E+00  0.0000E+00  0.0000E+00  0.0000E+00
    -22.734  0.0000E+00  0.0000E+00  0.0000E+00  0.0000E+00
    -22.623  0.0000E+00  0.0000E+00  0.0000E+00  0.0000E+00
    -22.511  0.0000E+00  0.0000E+00  0.0000E+00  0.0000E+00
    -22.400  0.0000E+00  0.0000E+00  0.0000E+00  0.0000E+00
    -22.289  0.0000E+00  0.0000E+00  0.0000E+00  0.0000E+00
    -22.178  0.0000E+00  0.0000E+00  0.0000E+00  0.0000E+00
    -22.066  0.0000E+00  0.0000E+00  0.0000E+00  0.0000E+00
    -21.955  0.0000E+00  0.0000E+00  0.0000E+00  0.0000E+00
    -21.844  0.3698E-15  0.3697E-15  0.4113E-16  0.4111E-16
    -21.733  0.1295E-10  0.1295E-10  0.1440E-11  0.1440E-11
    -21.622  0.4082E-07  0.4082E-07  0.4541E-08  0.4541E-08
    -21.510  0.1212E-04  0.1212E-04  0.1353E-05  0.1353E-05
    -21.399  0.3708E-03  0.3708E-03  0.4258E-04  0.4258E-04
    -21.288  0.1348E-02  0.1348E-02  0.1925E-03  0.1925E-03
    -21.177  0.6498E-03  0.6498E-03  0.2648E-03  0.2648E-03
    -21.066  0.2241E-03  0.2241E-03  0.2897E-03  0.2897E-03
    -20.954  0.1851E-02  0.1851E-02  0.4956E-03  0.4956E-03
    -20.843  0.5410E-02  0.5410E-02  0.1097E-02  0.1097E-02
    -20.732  0.8416E-02  0.8416E-02  0.2033E-02  0.2033E-02
    -20.621  0.1118E-01  0.1118E-01  0.3277E-02  0.3277E-02
    -20.510  0.1816E-01  0.1816E-01  0.5296E-02  0.5296E-02
    -20.398  0.2209E-01  0.2209E-01  0.7752E-02  0.7752E-02
    -20.287  0.1747E-01  0.1747E-01  0.9694E-02  0.9694E-02
    -20.176  0.1627E-01  0.1627E-01  0.1150E-01  0.1150E-01
    -20.065  0.1543E-01  0.1543E-01  0.1322E-01  0.1322E-01
    -19.954  0.1418E-01  0.1418E-01  0.1480E-01  0.1480E-01
    -19.842  0.1165E-01  0.1165E-01  0.1609E-01  0.1609E-01
    -19.731  0.1009E-01  0.1009E-01  0.1721E-01  0.1721E-01
    -19.620  0.1100E-01  0.1100E-01  0.1844E-01  0.1844E-01
    -19.509  0.1426E-01  0.1426E-01  0.2002E-01  0.2002E-01
    -19.397  0.1843E-01  0.1843E-01  0.2207E-01  0.2207E-01
    -19.286  0.1828E-01  0.1828E-01  0.2411E-01  0.2411E-01
    -19.175  0.1342E-01  0.1342E-01  0.2560E-01  0.2560E-01
    -19.064  0.1948E-01  0.1948E-01  0.2776E-01  0.2776E-01
    -18.953  0.7308E-01  0.7308E-01  0.3589E-01  0.3589E-01
    -18.841  0.9243E-01  0.9243E-01  0.4617E-01  0.4617E-01
    -18.730  0.3340E-01  0.3340E-01  0.4988E-01  0.4988E-01
    -18.619  0.7374E-02  0.7374E-02  0.5070E-01  0.5070E-01
    -18.508  0.7807E-03  0.7807E-03  0.5079E-01  0.5079E-01
    -18.397  0.1569E-04  0.1569E-04  0.5079E-01  0.5079E-01
    -18.285  0.1169E-03  0.1169E-03  0.5081E-01  0.5081E-01
    -18.174  0.1011E-02  0.1011E-02  0.5092E-01  0.5092E-01
    -18.063  0.1141E-02  0.1141E-02  0.5105E-01  0.5105E-01
    -17.952  0.7208E-03  0.7208E-03  0.5113E-01  0.5113E-01
    -17.841  0.2413E-02  0.2413E-02  0.5139E-01  0.5139E-01
    -17.729  0.1666E-02  0.1666E-02  0.5158E-01  0.5158E-01
    -17.618  0.1772E-03  0.1772E-03  0.5160E-01  0.5160E-01
    -17.507  0.2415E-05  0.2415E-05  0.5160E-01  0.5160E-01
    -17.396  0.3498E-08  0.3498E-08  0.5160E-01  0.5160E-01
    -17.285  0.4819E-12  0.4819E-12  0.5160E-01  0.5160E-01
    -17.173  0.5903E-17  0.5903E-17  0.5160E-01  0.5160E-01
    -17.062  0.0000E+00  0.0000E+00  0.5160E-01  0.5160E-01
    -16.951  0.0000E+00  0.0000E+00  0.5160E-01  0.5160E-01
    -16.840  0.0000E+00  0.0000E+00  0.5160E-01  0.5160E-01
    -16.729  0.0000E+00  0.0000E+00  0.5160E-01  0.5160E-01
    -16.617  0.0000E+00  0.0000E+00  0.5160E-01  0.5160E-01
    -16.506  0.0000E+00  0.0000E+00  0.5160E-01  0.5160E-01
    -16.395  0.0000E+00  0.0000E+00  0.5160E-01  0.5160E-01
    -16.284  0.0000E+00  0.0000E+00  0.5160E-01  0.5160E-01
    -16.172  0.0000E+00  0.0000E+00  0.5160E-01  0.5160E-01
    -16.061  0.0000E+00  0.0000E+00  0.5160E-01  0.5160E-01
    -15.950  0.1341E-17  0.1341E-17  0.5160E-01  0.5160E-01
    -15.839  0.1425E-12  0.1425E-12  0.5160E-01  0.5160E-01
    -15.728  0.1354E-08  0.1354E-08  0.5160E-01  0.5160E-01
    -15.616  0.1181E-05  0.1181E-05  0.5160E-01  0.5160E-01
    -15.505  0.1012E-03  0.1012E-03  0.5161E-01  0.5161E-01
    -15.394  0.9608E-03  0.9608E-03  0.5172E-01  0.5172E-01
    -15.283  0.1166E-02  0.1166E-02  0.5185E-01  0.5185E-01
    -15.172  0.1841E-03  0.1841E-03  0.5187E-01  0.5187E-01
    -15.060  0.3317E-05  0.3317E-05  0.5187E-01  0.5187E-01
    -14.949  0.5974E-08  0.5974E-08  0.5187E-01  0.5187E-01
    -14.838  0.9982E-12  0.9982E-12  0.5187E-01  0.5187E-01
    -14.727  0.1502E-16  0.1502E-16  0.5187E-01  0.5187E-01
    -14.616  0.0000E+00  0.0000E+00  0.5187E-01  0.5187E-01
    -14.504  0.0000E+00  0.0000E+00  0.5187E-01  0.5187E-01
    -14.393  0.0000E+00  0.0000E+00  0.5187E-01  0.5187E-01
    -14.282  0.0000E+00  0.0000E+00  0.5187E-01  0.5187E-01
    -14.171  0.0000E+00  0.0000E+00  0.5187E-01  0.5187E-01
    -14.060  0.1341E-18  0.1341E-18  0.5187E-01  0.5187E-01
    -13.948  0.2701E-13  0.2701E-13  0.5187E-01  0.5187E-01
    -13.837  0.3750E-09  0.3750E-09  0.5187E-01  0.5187E-01
    -13.726  0.4752E-06  0.4752E-06  0.5187E-01  0.5187E-01
    -13.615  0.5831E-04  0.5831E-04  0.5187E-01  0.5187E-01
    -13.503  0.7749E-03  0.7749E-03  0.5196E-01  0.5196E-01
    -13.392  0.1292E-02  0.1292E-02  0.5210E-01  0.5210E-01
    -13.281  0.2833E-03  0.2833E-03  0.5214E-01  0.5214E-01
    -13.170  0.7258E-05  0.7258E-05  0.5214E-01  0.5214E-01
    -13.059  0.1891E-07  0.1891E-07  0.5214E-01  0.5214E-01
    -12.947  0.4622E-11  0.4622E-11  0.5214E-01  0.5214E-01
    -12.836  0.2025E-09  0.2025E-09  0.5214E-01  0.5214E-01
    -12.725  0.3053E-06  0.3053E-06  0.5214E-01  0.5214E-01
    -12.614  0.4431E-04  0.4431E-04  0.5214E-01  0.5214E-01
    -12.503  0.6892E-03  0.6892E-03  0.5222E-01  0.5222E-01
    -12.391  0.1333E-02  0.1333E-02  0.5237E-01  0.5237E-01
    -12.280  0.3397E-03  0.3397E-03  0.5240E-01  0.5240E-01
    -12.169  0.1024E-04  0.1024E-04  0.5241E-01  0.5241E-01
    -12.058  0.3207E-07  0.3207E-07  0.5241E-01  0.5241E-01
    -11.947  0.5230E-06  0.5230E-06  0.5241E-01  0.5241E-01
    -11.835  0.6185E-04  0.6185E-04  0.5241E-01  0.5241E-01
    -11.724  0.7940E-03  0.7940E-03  0.5250E-01  0.5250E-01
    -11.613  0.1282E-02  0.1282E-02  0.5264E-01  0.5264E-01
    -11.502  0.2717E-03  0.2717E-03  0.5267E-01  0.5267E-01
    -11.391  0.6717E-05  0.6717E-05  0.5267E-01  0.5267E-01
    -11.279  0.1685E-07  0.1685E-07  0.5267E-01  0.5267E-01
    -11.168  0.2249E-10  0.2249E-10  0.5267E-01  0.5267E-01
    -11.057  0.5415E-07  0.5415E-07  0.5267E-01  0.5267E-01
    -10.946  0.1558E-04  0.1558E-04  0.5268E-01  0.5268E-01
    -10.834  0.5344E-03  0.5344E-03  0.5274E-01  0.5274E-01
    -10.723  0.3244E-02  0.3244E-02  0.5310E-01  0.5310E-01
    -10.612  0.6414E-02  0.6414E-02  0.5381E-01  0.5381E-01
    -10.501  0.7996E-02  0.7996E-02  0.5470E-01  0.5470E-01
    -10.390  0.9623E-02  0.9623E-02  0.5577E-01  0.5577E-01
    -10.278  0.8981E-02  0.8981E-02  0.5677E-01  0.5677E-01
    -10.167  0.9339E-02  0.9339E-02  0.5781E-01  0.5781E-01
    -10.056  0.8457E-02  0.8457E-02  0.5875E-01  0.5875E-01
     -9.945  0.7583E-02  0.7583E-02  0.5959E-01  0.5959E-01
     -9.834  0.7138E-02  0.7138E-02  0.6038E-01  0.6038E-01
     -9.722  0.6350E-02  0.6350E-02  0.6109E-01  0.6109E-01
     -9.611  0.4989E-02  0.4989E-02  0.6164E-01  0.6164E-01
     -9.500  0.3696E-02  0.3696E-02  0.6206E-01  0.6206E-01
     -9.389  0.5001E-02  0.5001E-02  0.6261E-01  0.6261E-01
     -9.278  0.7120E-02  0.7120E-02  0.6340E-01  0.6340E-01
     -9.166  0.7171E-02  0.7171E-02  0.6420E-01  0.6420E-01
     -9.055  0.6903E-02  0.6903E-02  0.6497E-01  0.6497E-01
     -8.944  0.8888E-02  0.8888E-02  0.6596E-01  0.6596E-01
     -8.833  0.6423E-02  0.6423E-02  0.6667E-01  0.6667E-01
     -8.722  0.6609E-02  0.6609E-02  0.6741E-01  0.6741E-01
     -8.610  0.1006E-01  0.1006E-01  0.6853E-01  0.6853E-01
     -8.499  0.9390E-02  0.9390E-02  0.6957E-01  0.6957E-01
     -8.388  0.8284E-02  0.8284E-02  0.7049E-01  0.7049E-01
     -8.277  0.1057E-01  0.1057E-01  0.7167E-01  0.7167E-01
     -8.165  0.1209E-01  0.1209E-01  0.7301E-01  0.7301E-01
     -8.054  0.1210E-01  0.1210E-01  0.7436E-01  0.7436E-01
     -7.943  0.1099E-01  0.1099E-01  0.7558E-01  0.7558E-01
     -7.832  0.6961E-02  0.6961E-02  0.7635E-01  0.7635E-01
     -7.721  0.4452E-02  0.4452E-02  0.7685E-01  0.7685E-01
     -7.609  0.5024E-02  0.5024E-02  0.7741E-01  0.7741E-01
     -7.498  0.4469E-02  0.4469E-02  0.7790E-01  0.7790E-01
     -7.387  0.6052E-02  0.6052E-02  0.7858E-01  0.7858E-01
     -7.276  0.1287E-01  0.1287E-01  0.8001E-01  0.8001E-01
     -7.165  0.2380E-01  0.2380E-01  0.8266E-01  0.8266E-01
     -7.053  0.3093E-01  0.3093E-01  0.8610E-01  0.8610E-01
     -6.942  0.3147E-01  0.3147E-01  0.8959E-01  0.8959E-01
     -6.831  0.3037E-01  0.3037E-01  0.9297E-01  0.9297E-01
     -6.720  0.2661E-01  0.2661E-01  0.9593E-01  0.9593E-01
     -6.609  0.2008E-01  0.2008E-01  0.9816E-01  0.9816E-01
     -6.497  0.1601E-01  0.1601E-01  0.9994E-01  0.9994E-01
     -6.386  0.1641E-01  0.1641E-01  0.1018E+00  0.1018E+00
     -6.275  0.1335E-01  0.1335E-01  0.1033E+00  0.1033E+00
     -6.164  0.8569E-02  0.8569E-02  0.1042E+00  0.1042E+00
     -6.053  0.4216E-02  0.4216E-02  0.1047E+00  0.1047E+00
     -5.941  0.1182E-02  0.1182E-02  0.1048E+00  0.1048E+00
     -5.830  0.8787E-03  0.8787E-03  0.1049E+00  0.1049E+00
     -5.719  0.1313E-02  0.1313E-02  0.1051E+00  0.1051E+00
     -5.608  0.1041E-02  0.1041E-02  0.1052E+00  0.1052E+00
     -5.496  0.2781E-02  0.2781E-02  0.1055E+00  0.1055E+00
     -5.385  0.2270E-02  0.2270E-02  0.1057E+00  0.1057E+00
     -5.274  0.1263E-02  0.1263E-02  0.1059E+00  0.1059E+00
     -5.163  0.1310E-02  0.1310E-02  0.1060E+00  0.1060E+00
     -5.052  0.7659E-02  0.7659E-02  0.1069E+00  0.1069E+00
     -4.940  0.1338E-01  0.1338E-01  0.1084E+00  0.1084E+00
     -4.829  0.1436E-01  0.1436E-01  0.1100E+00  0.1100E+00
     -4.718  0.2068E-01  0.2068E-01  0.1123E+00  0.1123E+00
     -4.607  0.2313E-01  0.2313E-01  0.1148E+00  0.1148E+00
     -4.496  0.2380E-01  0.2380E-01  0.1175E+00  0.1175E+00
     -4.384  0.2509E-01  0.2509E-01  0.1203E+00  0.1203E+00
     -4.273  0.2940E-01  0.2940E-01  0.1235E+00  0.1235E+00
     -4.162  0.3065E-01  0.3065E-01  0.1269E+00  0.1269E+00
     -4.051  0.2817E-01  0.2817E-01  0.1301E+00  0.1301E+00
     -3.940  0.2781E-01  0.2781E-01  0.1332E+00  0.1332E+00
     -3.828  0.3089E-01  0.3089E-01  0.1366E+00  0.1366E+00
     -3.717  0.3494E-01  0.3494E-01  0.1405E+00  0.1405E+00
     -3.606  0.3685E-01  0.3685E-01  0.1446E+00  0.1446E+00
     -3.495  0.4214E-01  0.4214E-01  0.1493E+00  0.1493E+00
     -3.384  0.4841E-01  0.4841E-01  0.1547E+00  0.1547E+00
     -3.272  0.5147E-01  0.5147E-01  0.1604E+00  0.1604E+00
     -3.161  0.4665E-01  0.4665E-01  0.1656E+00  0.1656E+00
     -3.050  0.4126E-01  0.4126E-01  0.1702E+00  0.1702E+00
     -2.939  0.3313E-01  0.3313E-01  0.1738E+00  0.1738E+00
     -2.827  0.2815E-01  0.2815E-01  0.1770E+00  0.1770E+00
     -2.716  0.2501E-01  0.2501E-01  0.1797E+00  0.1797E+00
     -2.605  0.1965E-01  0.1965E-01  0.1819E+00  0.1819E+00
     -2.494  0.1760E-01  0.1760E-01  0.1839E+00  0.1839E+00
     -2.383  0.2196E-01  0.2196E-01  0.1863E+00  0.1863E+00
     -2.271  0.3056E-01  0.3056E-01  0.1897E+00  0.1897E+00
     -2.160  0.3846E-01  0.3846E-01  0.1940E+00  0.1940E+00
     -2.049  0.4230E-01  0.4230E-01  0.1987E+00  0.1987E+00
     -1.938  0.4357E-01  0.4357E-01  0.2036E+00  0.2036E+00
     -1.827  0.3766E-01  0.3766E-01  0.2077E+00  0.2077E+00
     -1.715  0.2032E-01  0.2032E-01  0.2100E+00  0.2100E+00
     -1.604  0.6962E-02  0.6962E-02  0.2108E+00  0.2108E+00
     -1.493  0.3639E-02  0.3639E-02  0.2112E+00  0.2112E+00
     -1.382  0.2043E-02  0.2043E-02  0.2114E+00  0.2114E+00
     -1.271  0.7503E-03  0.7503E-03  0.2115E+00  0.2115E+00
     -1.159  0.4959E-04  0.4960E-04  0.2115E+00  0.2115E+00
     -1.048  0.3644E-06  0.3644E-06  0.2115E+00  0.2115E+00
     -0.937  0.2589E-09  0.2589E-09  0.2115E+00  0.2115E+00
     -0.826  0.2397E-09  0.2397E-09  0.2115E+00  0.2115E+00
     -0.715  0.3447E-06  0.3447E-06  0.2115E+00  0.2115E+00
     -0.603  0.4779E-04  0.4779E-04  0.2115E+00  0.2115E+00
     -0.492  0.7123E-03  0.7123E-03  0.2116E+00  0.2116E+00
     -0.381  0.1323E-02  0.1323E-02  0.2117E+00  0.2117E+00
     -0.270  0.3238E-03  0.3238E-03  0.2118E+00  0.2118E+00
     -0.158  0.9345E-05  0.9345E-05  0.2118E+00  0.2118E+00
     -0.047  0.4170E-05  0.4170E-05  0.2118E+00  0.2118E+00
      0.064  0.2085E-03  0.2085E-03  0.2118E+00  0.2118E+00
      0.175  0.1206E-02  0.1206E-02  0.2119E+00  0.2119E+00
      0.286  0.9100E-03  0.9100E-03  0.2120E+00  0.2120E+00
      0.398  0.8738E-04  0.8738E-04  0.2120E+00  0.2120E+00
      0.509  0.9237E-06  0.9237E-06  0.2120E+00  0.2120E+00
      0.620  0.9547E-09  0.9547E-09  0.2120E+00  0.2120E+00
      0.731  0.9050E-13  0.9050E-13  0.2120E+00  0.2120E+00
      0.842  0.8049E-18  0.8049E-18  0.2120E+00  0.2120E+00
      0.954  0.0000E+00  0.0000E+00  0.2120E+00  0.2120E+00
      1.065  0.0000E+00  0.0000E+00  0.2120E+00  0.2120E+00
      1.176  0.0000E+00  0.0000E+00  0.2120E+00  0.2120E+00
      1.287  0.0000E+00  0.0000E+00  0.2120E+00  0.2120E+00
      1.398  0.0000E+00  0.0000E+00  0.2120E+00  0.2120E+00
      1.510  0.0000E+00  0.0000E+00  0.2120E+00  0.2120E+00
      1.621  0.0000E+00  0.0000E+00  0.2120E+00  0.2120E+00
      1.732  0.0000E+00  0.0000E+00  0.2120E+00  0.2120E+00
      1.843  0.0000E+00  0.0000E+00  0.2120E+00  0.2120E+00
      1.954  0.0000E+00  0.0000E+00  0.2120E+00  0.2120E+00
      2.066  0.0000E+00  0.0000E+00  0.2120E+00  0.2120E+00
      2.177  0.0000E+00  0.0000E+00  0.2120E+00  0.2120E+00
      2.288  0.0000E+00  0.0000E+00  0.2120E+00  0.2120E+00
      2.399  0.0000E+00  0.0000E+00  0.2120E+00  0.2120E+00
      2.511  0.0000E+00  0.0000E+00  0.2120E+00  0.2120E+00
      2.622  0.0000E+00  0.0000E+00  0.2120E+00  0.2120E+00
      2.733  0.0000E+00  0.0000E+00  0.2120E+00  0.2120E+00
      2.844  0.0000E+00  0.0000E+00  0.2120E+00  0.2120E+00
      2.955  0.0000E+00  0.0000E+00  0.2120E+00  0.2120E+00
      3.067  0.0000E+00  0.0000E+00  0.2120E+00  0.2120E+00
      3.178  0.0000E+00  0.0000E+00  0.2120E+00  0.2120E+00
      3.289  0.0000E+00  0.0000E+00  0.2120E+00  0.2120E+00
      3.400  0.0000E+00  0.0000E+00  0.2120E+00  0.2120E+00
      3.511  0.9337E-16  0.9323E-16  0.2120E+00  0.2120E+00
      3.623  0.4333E-11  0.4331E-11  0.2120E+00  0.2120E+00
      3.734  0.1805E-07  0.1804E-07  0.2120E+00  0.2120E+00
      3.845  0.7035E-05  0.7033E-05  0.2120E+00  0.2120E+00
      3.956  0.2786E-03  0.2785E-03  0.2121E+00  0.2121E+00
      4.067  0.1288E-02  0.1288E-02  0.2122E+00  0.2122E+00
      4.179  0.7833E-03  0.7834E-03  0.2123E+00  0.2123E+00
      4.290  0.1333E-03  0.1333E-03  0.2123E+00  0.2123E+00
      4.401  0.9954E-03  0.9952E-03  0.2124E+00  0.2124E+00
      4.512  0.2923E-02  0.2923E-02  0.2128E+00  0.2128E+00
      4.623  0.3190E-02  0.3190E-02  0.2131E+00  0.2131E+00
      4.735  0.3325E-02  0.3325E-02  0.2135E+00  0.2135E+00
      4.846  0.3407E-02  0.3407E-02  0.2139E+00  0.2139E+00
      4.957  0.1879E-02  0.1879E-02  0.2141E+00  0.2141E+00
      5.068  0.1613E-02  0.1613E-02  0.2142E+00  0.2142E+00
      5.180  0.2817E-02  0.2817E-02  0.2146E+00  0.2146E+00
      5.291  0.3578E-02  0.3578E-02  0.2150E+00  0.2150E+00
      5.402  0.3712E-02  0.3712E-02  0.2154E+00  0.2154E+00
      5.513  0.2406E-02  0.2406E-02  0.2156E+00  0.2156E+00
      5.624  0.3718E-02  0.3718E-02  0.2160E+00  0.2160E+00
      5.736  0.5714E-02  0.5714E-02  0.2167E+00  0.2167E+00
      5.847  0.7799E-02  0.7799E-02  0.2176E+00  0.2176E+00
      5.958  0.8715E-02  0.8715E-02  0.2185E+00  0.2185E+00
      6.069  0.7759E-02  0.7759E-02  0.2194E+00  0.2194E+00
      6.180  0.7051E-02  0.7051E-02  0.2202E+00  0.2202E+00
      6.292  0.8708E-02  0.8708E-02  0.2211E+00  0.2211E+00
      6.403  0.7972E-02  0.7972E-02  0.2220E+00  0.2220E+00
      6.514  0.5897E-02  0.5897E-02  0.2227E+00  0.2227E+00
      6.625  0.7023E-02  0.7023E-02  0.2235E+00  0.2235E+00
      6.736  0.9686E-02  0.9686E-02  0.2245E+00  0.2245E+00
      6.848  0.1244E-01  0.1244E-01  0.2259E+00  0.2259E+00
      6.959  0.1365E-01  0.1365E-01  0.2274E+00  0.2274E+00
      7.070  0.1255E-01  0.1255E-01  0.2288E+00  0.2288E+00
      7.181  0.1428E-01  0.1428E-01  0.2304E+00  0.2304E+00
      7.292  0.1869E-01  0.1869E-01  0.2325E+00  0.2325E+00
      7.404  0.2320E-01  0.2320E-01  0.2351E+00  0.2351E+00
      7.515  0.2528E-01  0.2528E-01  0.2379E+00  0.2379E+00
      7.626  0.2618E-01  0.2618E-01  0.2408E+00  0.2408E+00
      7.737  0.2934E-01  0.2934E-01  0.2441E+00  0.2441E+00
      7.849  0.3229E-01  0.3229E-01  0.2477E+00  0.2477E+00
      7.960  0.3139E-01  0.3139E-01  0.2511E+00  0.2511E+00
      8.071  0.2966E-01  0.2966E-01  0.2544E+00  0.2544E+00
      8.182  0.3088E-01  0.3088E-01  0.2579E+00  0.2579E+00
      8.293  0.3220E-01  0.3220E-01  0.2615E+00  0.2615E+00
      8.405  0.3064E-01  0.3064E-01  0.2649E+00  0.2649E+00
      8.516  0.2684E-01  0.2684E-01  0.2679E+00  0.2679E+00
      8.627  0.2442E-01  0.2442E-01  0.2706E+00  0.2706E+00
      8.738  0.2407E-01  0.2407E-01  0.2732E+00  0.2732E+00
      8.849  0.2496E-01  0.2496E-01  0.2760E+00  0.2760E+00
      8.961  0.2014E-01  0.2014E-01  0.2783E+00  0.2783E+00
      9.072  0.9672E-02  0.9673E-02  0.2793E+00  0.2793E+00
      9.183  0.1403E-02  0.1404E-02  0.2795E+00  0.2795E+00
      9.294  0.3191E-04  0.3198E-04  0.2795E+00  0.2795E+00
      9.405  0.8430E-07  0.8462E-07  0.2795E+00  0.2795E+00
      9.517  0.2252E-10  0.2266E-10  0.2795E+00  0.2795E+00
      9.628  0.5674E-15  0.5723E-15  0.2795E+00  0.2795E+00
      9.739  0.0000E+00  0.0000E+00  0.2795E+00  0.2795E+00
      9.850  0.0000E+00  0.0000E+00  0.2795E+00  0.2795E+00
      9.961  0.0000E+00  0.0000E+00  0.2795E+00  0.2795E+00
     10.073  0.0000E+00  0.0000E+00  0.2795E+00  0.2795E+00
     10.184  0.0000E+00  0.0000E+00  0.2795E+00  0.2795E+00
     10.295  0.0000E+00  0.0000E+00  0.2795E+00  0.2795E+00
     10.406  0.0000E+00  0.0000E+00  0.2795E+00  0.2795E+00
     10.518  0.0000E+00  0.0000E+00  0.2795E+00  0.2795E+00
