  307  307 3721    2
  0.1759291E+02  0.2010949E-08  0.1995852E-08  0.1345699E-08  0.1500000E-16
  1.000000000000000E-004
  CAR 
 unknown system                          
   1578      1   1040
 
  0.1276756E-14  0.1276756E-14  0.1276756E-14  0.1000000E+01
      1        -21.328479      -21.328479   1.000000   1.000000
      2        -20.961382      -20.961382   1.000000   1.000000
      3        -20.883071      -20.883071   1.000000   1.000000
      4        -20.868652      -20.868652   1.000000   1.000000
      5        -20.810258      -20.810258   1.000000   1.000000
      6        -20.784626      -20.784626   1.000000   1.000000
      7        -20.777401      -20.777401   1.000000   1.000000
      8        -20.717150      -20.717149   1.000000   1.000000
      9        -20.704181      -20.704181   1.000000   1.000000
     10        -20.678012      -20.678012   1.000000   1.000000
     11        -20.638609      -20.638609   1.000000   1.000000
     12        -20.629223      -20.629223   1.000000   1.000000
     13        -20.616341      -20.616341   1.000000   1.000000
     14        -20.566174      -20.566174   1.000000   1.000000
     15        -20.556898      -20.556898   1.000000   1.000000
     16        -20.545961      -20.545961   1.000000   1.000000
     17        -20.537708      -20.537708   1.000000   1.000000
     18        -20.522038      -20.522038   1.000000   1.000000
     19        -20.512633      -20.512633   1.000000   1.000000
     20        -20.505898      -20.505898   1.000000   1.000000
     21        -20.503321      -20.503321   1.000000   1.000000
     22        -20.485840      -20.485840   1.000000   1.000000
     23        -20.481634      -20.481634   1.000000   1.000000
     24        -20.474195      -20.474195   1.000000   1.000000
     25        -20.457900      -20.457900   1.000000   1.000000
     26        -20.452576      -20.452576   1.000000   1.000000
     27        -20.434950      -20.434950   1.000000   1.000000
     28        -20.419837      -20.419837   1.000000   1.000000
     29        -20.413118      -20.413118   1.000000   1.000000
     30        -20.392117      -20.392117   1.000000   1.000000
     31        -20.386268      -20.386268   1.000000   1.000000
     32        -20.372442      -20.372442   1.000000   1.000000
     33        -20.359689      -20.359689   1.000000   1.000000
     34        -20.334961      -20.334961   1.000000   1.000000
     35        -20.328429      -20.328429   1.000000   1.000000
     36        -20.281419      -20.281419   1.000000   1.000000
     37        -20.268596      -20.268596   1.000000   1.000000
     38        -20.251643      -20.251643   1.000000   1.000000
     39        -20.246254      -20.246254   1.000000   1.000000
     40        -20.233982      -20.233982   1.000000   1.000000
     41        -20.213275      -20.213275   1.000000   1.000000
     42        -20.202305      -20.202305   1.000000   1.000000
     43        -20.187593      -20.187593   1.000000   1.000000
     44        -20.179650      -20.179650   1.000000   1.000000
     45        -20.144346      -20.144346   1.000000   1.000000
     46        -20.136255      -20.136255   1.000000   1.000000
     47        -20.101816      -20.101816   1.000000   1.000000
     48        -20.094235      -20.094235   1.000000   1.000000
     49        -20.078040      -20.078040   1.000000   1.000000
     50        -20.054169      -20.054169   1.000000   1.000000
     51        -20.046345      -20.046345   1.000000   1.000000
     52        -20.031640      -20.031640   1.000000   1.000000
     53        -20.011139      -20.011139   1.000000   1.000000
     54        -19.990230      -19.990230   1.000000   1.000000
     55        -19.962196      -19.962196   1.000000   1.000000
     56        -19.940556      -19.940556   1.000000   1.000000
     57        -19.928260      -19.928260   1.000000   1.000000
     58        -19.916157      -19.916157   1.000000   1.000000
     59        -19.894650      -19.894650   1.000000   1.000000
     60        -19.847276      -19.847276   1.000000   1.000000
     61        -19.826524      -19.826524   1.000000   1.000000
     62        -19.801183      -19.801183   1.000000   1.000000
     63        -19.774377      -19.774377   1.000000   1.000000
     64        -19.745752      -19.745752   1.000000   1.000000
     65        -19.703005      -19.703005   1.000000   1.000000
     66        -19.691183      -19.691183   1.000000   1.000000
     67        -19.679745      -19.679744   1.000000   1.000000
     68        -19.633009      -19.633009   1.000000   1.000000
     69        -19.623874      -19.623874   1.000000   1.000000
     70        -19.597210      -19.597210   1.000000   1.000000
     71        -19.563553      -19.563552   1.000000   1.000000
     72        -19.543921      -19.543921   1.000000   1.000000
     73        -19.536966      -19.536966   1.000000   1.000000
     74        -19.510747      -19.510747   1.000000   1.000000
     75        -19.506421      -19.506421   1.000000   1.000000
     76        -19.490751      -19.490751   1.000000   1.000000
     77        -19.473346      -19.473346   1.000000   1.000000
     78        -19.460912      -19.460912   1.000000   1.000000
     79        -19.444675      -19.444675   1.000000   1.000000
     80        -19.436312      -19.436312   1.000000   1.000000
     81        -19.410169      -19.410169   1.000000   1.000000
     82        -19.404823      -19.404823   1.000000   1.000000
     83        -19.397644      -19.397644   1.000000   1.000000
     84        -19.383772      -19.383772   1.000000   1.000000
     85        -19.360980      -19.360980   1.000000   1.000000
     86        -19.353311      -19.353311   1.000000   1.000000
     87        -19.334055      -19.334054   1.000000   1.000000
     88        -19.329130      -19.329130   1.000000   1.000000
     89        -19.305472      -19.305472   1.000000   1.000000
     90        -19.299501      -19.299501   1.000000   1.000000
     91        -19.291132      -19.291132   1.000000   1.000000
     92        -19.266032      -19.266032   1.000000   1.000000
     93        -19.255605      -19.255605   1.000000   1.000000
     94        -19.227651      -19.227651   1.000000   1.000000
     95        -19.191142      -19.191142   1.000000   1.000000
     96        -19.170540      -19.170539   1.000000   1.000000
     97        -19.147506      -19.147505   1.000000   1.000000
     98        -19.116964      -19.116964   1.000000   1.000000
     99        -19.078574      -19.078574   1.000000   1.000000
    100        -19.033749      -19.033749   1.000000   1.000000
    101        -19.030109      -19.030109   1.000000   1.000000
    102        -19.025533      -19.025533   1.000000   1.000000
    103        -19.017163      -19.017163   1.000000   1.000000
    104        -19.010693      -19.010693   1.000000   1.000000
    105        -19.005673      -19.005673   1.000000   1.000000
    106        -19.001604      -19.001604   1.000000   1.000000
    107        -18.999143      -18.999143   1.000000   1.000000
    108        -18.995123      -18.995123   1.000000   1.000000
    109        -18.993580      -18.993580   1.000000   1.000000
    110        -18.988442      -18.988442   1.000000   1.000000
    111        -18.986775      -18.986774   1.000000   1.000000
    112        -18.985268      -18.985268   1.000000   1.000000
    113        -18.980924      -18.980924   1.000000   1.000000
    114        -18.977251      -18.977251   1.000000   1.000000
    115        -18.974998      -18.974998   1.000000   1.000000
    116        -18.973485      -18.973485   1.000000   1.000000
    117        -18.971797      -18.971797   1.000000   1.000000
    118        -18.969540      -18.969540   1.000000   1.000000
    119        -18.966812      -18.966812   1.000000   1.000000
    120        -18.966180      -18.966180   1.000000   1.000000
    121        -18.963174      -18.963174   1.000000   1.000000
    122        -18.961877      -18.961877   1.000000   1.000000
    123        -18.959288      -18.959288   1.000000   1.000000
    124        -18.958672      -18.958672   1.000000   1.000000
    125        -18.957283      -18.957283   1.000000   1.000000
    126        -18.954701      -18.954701   1.000000   1.000000
    127        -18.951852      -18.951852   1.000000   1.000000
    128        -18.950341      -18.950341   1.000000   1.000000
    129        -18.949733      -18.949733   1.000000   1.000000
    130        -18.949065      -18.949065   1.000000   1.000000
    131        -18.947658      -18.947658   1.000000   1.000000
    132        -18.946856      -18.946856   1.000000   1.000000
    133        -18.945418      -18.945418   1.000000   1.000000
    134        -18.944578      -18.944578   1.000000   1.000000
    135        -18.943445      -18.943445   1.000000   1.000000
    136        -18.942300      -18.942300   1.000000   1.000000
    137        -18.941470      -18.941470   1.000000   1.000000
    138        -18.940719      -18.940719   1.000000   1.000000
    139        -18.938203      -18.938203   1.000000   1.000000
    140        -18.937785      -18.937785   1.000000   1.000000
    141        -18.934256      -18.934256   1.000000   1.000000
    142        -18.933655      -18.933655   1.000000   1.000000
    143        -18.932590      -18.932590   1.000000   1.000000
    144        -18.931909      -18.931909   1.000000   1.000000
    145        -18.930374      -18.930374   1.000000   1.000000
    146        -18.929678      -18.929678   1.000000   1.000000
    147        -18.928899      -18.928899   1.000000   1.000000
    148        -18.927318      -18.927318   1.000000   1.000000
    149        -18.924415      -18.924415   1.000000   1.000000
    150        -18.923544      -18.923544   1.000000   1.000000
    151        -18.922416      -18.922416   1.000000   1.000000
    152        -18.920179      -18.920179   1.000000   1.000000
    153        -18.918670      -18.918670   1.000000   1.000000
    154        -18.917797      -18.917797   1.000000   1.000000
    155        -18.914353      -18.914352   1.000000   1.000000
    156        -18.912145      -18.912145   1.000000   1.000000
    157        -18.910802      -18.910802   1.000000   1.000000
    158        -18.910339      -18.910339   1.000000   1.000000
    159        -18.909813      -18.909813   1.000000   1.000000
    160        -18.909233      -18.909233   1.000000   1.000000
    161        -18.906244      -18.906244   1.000000   1.000000
    162        -18.904552      -18.904552   1.000000   1.000000
    163        -18.903915      -18.903915   1.000000   1.000000
    164        -18.900669      -18.900669   1.000000   1.000000
    165        -18.897695      -18.897695   1.000000   1.000000
    166        -18.896868      -18.896868   1.000000   1.000000
    167        -18.894994      -18.894994   1.000000   1.000000
    168        -18.892921      -18.892921   1.000000   1.000000
    169        -18.889327      -18.889327   1.000000   1.000000
    170        -18.884488      -18.884488   1.000000   1.000000
    171        -18.882664      -18.882664   1.000000   1.000000
    172        -18.877403      -18.877403   1.000000   1.000000
    173        -18.874735      -18.874735   1.000000   1.000000
    174        -18.870614      -18.870614   1.000000   1.000000
    175        -18.866056      -18.866056   1.000000   1.000000
    176        -18.862033      -18.862033   1.000000   1.000000
    177        -18.859089      -18.859089   1.000000   1.000000
    178        -18.856376      -18.856376   1.000000   1.000000
    179        -18.855591      -18.855591   1.000000   1.000000
    180        -18.853113      -18.853113   1.000000   1.000000
    181        -18.842639      -18.842639   1.000000   1.000000
    182        -18.838940      -18.838940   1.000000   1.000000
    183        -18.820706      -18.820706   1.000000   1.000000
    184        -18.778912      -18.778912   1.000000   1.000000
    185        -18.760671      -18.760671   1.000000   1.000000
    186        -18.740467      -18.740467   1.000000   1.000000
    187        -18.734205      -18.734205   1.000000   1.000000
    188        -18.728163      -18.728163   1.000000   1.000000
    189        -18.698323      -18.698323   1.000000   1.000000
    190        -18.168397      -18.168397   1.000000   1.000000
    191        -17.888376      -17.888376   1.000000   1.000000
    192        -17.838101      -17.838101   1.000000   1.000000
    193        -15.383320      -15.383320   1.000000   1.000000
    194        -13.475258      -13.475258   1.000000   1.000000
    195        -12.466250      -12.466250   1.000000   1.000000
    196        -11.697717      -11.697717   1.000000   1.000000
    197        -10.767960      -10.767960   1.000000   1.000000
    198        -10.708548      -10.708548   1.000000   1.000000
    199        -10.679584      -10.679584   1.000000   1.000000
    200        -10.630779      -10.630779   1.000000   1.000000
    201        -10.590231      -10.590231   1.000000   1.000000
    202        -10.573805      -10.573805   1.000000   1.000000
    203        -10.534839      -10.534839   1.000000   1.000000
    204        -10.501397      -10.501397   1.000000   1.000000
    205        -10.450894      -10.450894   1.000000   1.000000
    206        -10.423738      -10.423738   1.000000   1.000000
    207        -10.413646      -10.413646   1.000000   1.000000
    208        -10.398515      -10.398515   1.000000   1.000000
    209        -10.392408      -10.392408   1.000000   1.000000
    210        -10.347302      -10.347302   1.000000   1.000000
    211        -10.292241      -10.292241   1.000000   1.000000
    212        -10.257320      -10.257320   1.000000   1.000000
    213        -10.225145      -10.225145   1.000000   1.000000
    214        -10.207355      -10.207355   1.000000   1.000000
    215        -10.196636      -10.196636   1.000000   1.000000
    216        -10.165866      -10.165866   1.000000   1.000000
    217        -10.133488      -10.133488   1.000000   1.000000
    218        -10.105623      -10.105623   1.000000   1.000000
    219        -10.041253      -10.041253   1.000000   1.000000
    220        -10.029291      -10.029291   1.000000   1.000000
    221         -9.992042       -9.992042   1.000000   1.000000
    222         -9.964455       -9.964455   1.000000   1.000000
    223         -9.922544       -9.922544   1.000000   1.000000
    224         -9.854215       -9.854215   1.000000   1.000000
    225         -9.840342       -9.840342   1.000000   1.000000
    226         -9.819695       -9.819695   1.000000   1.000000
    227         -9.777641       -9.777641   1.000000   1.000000
    228         -9.713254       -9.713254   1.000000   1.000000
    229         -9.651248       -9.651248   1.000000   1.000000
    230         -9.625998       -9.625998   1.000000   1.000000
    231         -9.541778       -9.541778   1.000000   1.000000
    232         -9.413792       -9.413792   1.000000   1.000000
    233         -9.392635       -9.392635   1.000000   1.000000
    234         -9.382003       -9.382003   1.000000   1.000000
    235         -9.348136       -9.348136   1.000000   1.000000
    236         -9.268726       -9.268726   1.000000   1.000000
    237         -9.251864       -9.251864   1.000000   1.000000
    238         -9.233921       -9.233921   1.000000   1.000000
    239         -9.189149       -9.189149   1.000000   1.000000
    240         -9.158776       -9.158776   1.000000   1.000000
    241         -9.069764       -9.069764   1.000000   1.000000
    242         -9.049841       -9.049841   1.000000   1.000000
    243         -9.018081       -9.018081   1.000000   1.000000
    244         -9.004340       -9.004340   1.000000   1.000000
    245         -8.984298       -8.984298   1.000000   1.000000
    246         -8.948270       -8.948270   1.000000   1.000000
    247         -8.929742       -8.929742   1.000000   1.000000
    248         -8.883771       -8.883771   1.000000   1.000000
    249         -8.785020       -8.785020   1.000000   1.000000
    250         -8.750221       -8.750221   1.000000   1.000000
    251         -8.736324       -8.736324   1.000000   1.000000
    252         -8.667305       -8.667305   1.000000   1.000000
    253         -8.662130       -8.662130   1.000000   1.000000
    254         -8.654931       -8.654931   1.000000   1.000000
    255         -8.626443       -8.626443   1.000000   1.000000
    256         -8.614644       -8.614644   1.000000   1.000000
    257         -8.566482       -8.566482   1.000000   1.000000
    258         -8.544286       -8.544286   1.000000   1.000000
    259         -8.539704       -8.539704   1.000000   1.000000
    260         -8.479488       -8.479488   1.000000   1.000000
    261         -8.431043       -8.431043   1.000000   1.000000
    262         -8.391865       -8.391865   1.000000   1.000000
    263         -8.378387       -8.378387   1.000000   1.000000
    264         -8.364831       -8.364831   1.000000   1.000000
    265         -8.308608       -8.308608   1.000000   1.000000
    266         -8.297938       -8.297938   1.000000   1.000000
    267         -8.280658       -8.280658   1.000000   1.000000
    268         -8.261287       -8.261287   1.000000   1.000000
    269         -8.237086       -8.237086   1.000000   1.000000
    270         -8.203409       -8.203409   1.000000   1.000000
    271         -8.187141       -8.187140   1.000000   1.000000
    272         -8.178647       -8.178647   1.000000   1.000000
    273         -8.156526       -8.156526   1.000000   1.000000
    274         -8.125885       -8.125885   1.000000   1.000000
    275         -8.091209       -8.091209   1.000000   1.000000
    276         -8.075291       -8.075291   1.000000   1.000000
    277         -8.064449       -8.064449   1.000000   1.000000
    278         -8.031590       -8.031589   1.000000   1.000000
    279         -8.026071       -8.026071   1.000000   1.000000
    280         -7.985572       -7.985572   1.000000   1.000000
    281         -7.980951       -7.980951   1.000000   1.000000
    282         -7.938572       -7.938572   1.000000   1.000000
    283         -7.926725       -7.926725   1.000000   1.000000
    284         -7.883293       -7.883293   1.000000   1.000000
    285         -7.817021       -7.817021   1.000000   1.000000
    286         -7.742289       -7.742289   1.000000   1.000000
    287         -7.675322       -7.675322   1.000000   1.000000
    288         -7.629979       -7.629979   1.000000   1.000000
    289         -7.615698       -7.615698   1.000000   1.000000
    290         -7.503026       -7.503026   1.000000   1.000000
    291         -7.463701       -7.463701   1.000000   1.000000
    292         -7.401496       -7.401496   1.000000   1.000000
    293         -7.347560       -7.347560   1.000000   1.000000
    294         -7.338464       -7.338464   1.000000   1.000000
    295         -7.325300       -7.325300   1.000000   1.000000
    296         -7.294066       -7.294066   1.000000   1.000000
    297         -7.277289       -7.277289   1.000000   1.000000
    298         -7.262683       -7.262683   1.000000   1.000000
    299         -7.248178       -7.248178   1.000000   1.000000
    300         -7.232698       -7.232698   1.000000   1.000000
    301         -7.223043       -7.223043   1.000000   1.000000
    302         -7.213752       -7.213752   1.000000   1.000000
    303         -7.205030       -7.205030   1.000000   1.000000
    304         -7.194781       -7.194781   1.000000   1.000000
    305         -7.187748       -7.187748   1.000000   1.000000
    306         -7.180235       -7.180235   1.000000   1.000000
    307         -7.176883       -7.176883   1.000000   1.000000
    308         -7.166761       -7.166761   1.000000   1.000000
    309         -7.146343       -7.146343   1.000000   1.000000
    310         -7.139312       -7.139312   1.000000   1.000000
    311         -7.134949       -7.134949   1.000000   1.000000
    312         -7.123112       -7.123112   1.000000   1.000000
    313         -7.116831       -7.116831   1.000000   1.000000
    314         -7.105459       -7.105459   1.000000   1.000000
    315         -7.103073       -7.103073   1.000000   1.000000
    316         -7.091919       -7.091919   1.000000   1.000000
    317         -7.087624       -7.087624   1.000000   1.000000
    318         -7.079470       -7.079470   1.000000   1.000000
    319         -7.071248       -7.071248   1.000000   1.000000
    320         -7.058988       -7.058988   1.000000   1.000000
    321         -7.043740       -7.043740   1.000000   1.000000
    322         -7.039553       -7.039553   1.000000   1.000000
    323         -7.035899       -7.035899   1.000000   1.000000
    324         -7.028640       -7.028640   1.000000   1.000000
    325         -7.025611       -7.025611   1.000000   1.000000
    326         -7.015285       -7.015285   1.000000   1.000000
    327         -7.009731       -7.009731   1.000000   1.000000
    328         -7.000404       -7.000404   1.000000   1.000000
    329         -6.985364       -6.985364   1.000000   1.000000
    330         -6.977976       -6.977976   1.000000   1.000000
    331         -6.962434       -6.962434   1.000000   1.000000
    332         -6.957849       -6.957849   1.000000   1.000000
    333         -6.953115       -6.953115   1.000000   1.000000
    334         -6.949304       -6.949304   1.000000   1.000000
    335         -6.924381       -6.924381   1.000000   1.000000
    336         -6.922946       -6.922946   1.000000   1.000000
    337         -6.912928       -6.912928   1.000000   1.000000
    338         -6.901772       -6.901772   1.000000   1.000000
    339         -6.897966       -6.897966   1.000000   1.000000
    340         -6.893478       -6.893478   1.000000   1.000000
    341         -6.872498       -6.872498   1.000000   1.000000
    342         -6.869452       -6.869452   1.000000   1.000000
    343         -6.864740       -6.864740   1.000000   1.000000
    344         -6.852314       -6.852314   1.000000   1.000000
    345         -6.845560       -6.845560   1.000000   1.000000
    346         -6.837286       -6.837286   1.000000   1.000000
    347         -6.829697       -6.829697   1.000000   1.000000
    348         -6.822356       -6.822356   1.000000   1.000000
    349         -6.812538       -6.812538   1.000000   1.000000
    350         -6.802804       -6.802804   1.000000   1.000000
    351         -6.795933       -6.795933   1.000000   1.000000
    352         -6.787808       -6.787808   1.000000   1.000000
    353         -6.777912       -6.777912   1.000000   1.000000
    354         -6.765726       -6.765726   1.000000   1.000000
    355         -6.753812       -6.753812   1.000000   1.000000
    356         -6.736062       -6.736062   1.000000   1.000000
    357         -6.730896       -6.730896   1.000000   1.000000
    358         -6.722180       -6.722180   1.000000   1.000000
    359         -6.710328       -6.710328   1.000000   1.000000
    360         -6.690007       -6.690007   1.000000   1.000000
    361         -6.683314       -6.683314   1.000000   1.000000
    362         -6.668683       -6.668683   1.000000   1.000000
    363         -6.657110       -6.657110   1.000000   1.000000
    364         -6.644125       -6.644125   1.000000   1.000000
    365         -6.639051       -6.639051   1.000000   1.000000
    366         -6.614888       -6.614888   1.000000   1.000000
    367         -6.598446       -6.598446   1.000000   1.000000
    368         -6.560442       -6.560442   1.000000   1.000000
    369         -6.558767       -6.558767   1.000000   1.000000
    370         -6.538111       -6.538111   1.000000   1.000000
    371         -6.515873       -6.515873   1.000000   1.000000
    372         -6.513249       -6.513249   1.000000   1.000000
    373         -6.481408       -6.481408   1.000000   1.000000
    374         -6.454325       -6.454325   1.000000   1.000000
    375         -6.446129       -6.446129   1.000000   1.000000
    376         -6.436167       -6.436167   1.000000   1.000000
    377         -6.422225       -6.422225   1.000000   1.000000
    378         -6.414753       -6.414753   1.000000   1.000000
    379         -6.400662       -6.400662   1.000000   1.000000
    380         -6.374418       -6.374418   1.000000   1.000000
    381         -6.355610       -6.355610   1.000000   1.000000
    382         -6.342781       -6.342781   1.000000   1.000000
    383         -6.338860       -6.338860   1.000000   1.000000
    384         -6.312765       -6.312765   1.000000   1.000000
    385         -6.290008       -6.290008   1.000000   1.000000
    386         -6.220945       -6.220945   1.000000   1.000000
    387         -6.204224       -6.204224   1.000000   1.000000
    388         -6.190601       -6.190601   1.000000   1.000000
    389         -6.178642       -6.178642   1.000000   1.000000
    390         -6.067985       -6.067985   1.000000   1.000000
    391         -5.803233       -5.803233   1.000000   1.000000
    392         -5.549824       -5.549824   1.000000   1.000000
    393         -5.525080       -5.525079   1.000000   1.000000
    394         -5.376294       -5.376294   1.000000   1.000000
    395         -5.105303       -5.105302   1.000000   1.000000
    396         -5.068521       -5.068520   1.000000   1.000000
    397         -5.054685       -5.054685   1.000000   1.000000
    398         -5.045317       -5.045317   1.000000   1.000000
    399         -5.039126       -5.039125   1.000000   1.000000
    400         -5.002276       -5.002276   1.000000   1.000000
    401         -4.994696       -4.994696   1.000000   1.000000
    402         -4.986522       -4.986522   1.000000   1.000000
    403         -4.970472       -4.970472   1.000000   1.000000
    404         -4.935150       -4.935150   1.000000   1.000000
    405         -4.933197       -4.933197   1.000000   1.000000
    406         -4.888948       -4.888948   1.000000   1.000000
    407         -4.836104       -4.836104   1.000000   1.000000
    408         -4.830698       -4.830698   1.000000   1.000000
    409         -4.816467       -4.816467   1.000000   1.000000
    410         -4.807712       -4.807712   1.000000   1.000000
    411         -4.798635       -4.798635   1.000000   1.000000
    412         -4.796173       -4.796173   1.000000   1.000000
    413         -4.780127       -4.780127   1.000000   1.000000
    414         -4.774818       -4.774818   1.000000   1.000000
    415         -4.750173       -4.750173   1.000000   1.000000
    416         -4.746558       -4.746558   1.000000   1.000000
    417         -4.737070       -4.737070   1.000000   1.000000
    418         -4.730690       -4.730690   1.000000   1.000000
    419         -4.706831       -4.706831   1.000000   1.000000
    420         -4.690743       -4.690743   1.000000   1.000000
    421         -4.681569       -4.681569   1.000000   1.000000
    422         -4.675491       -4.675491   1.000000   1.000000
    423         -4.651721       -4.651721   1.000000   1.000000
    424         -4.645638       -4.645638   1.000000   1.000000
    425         -4.627794       -4.627794   1.000000   1.000000
    426         -4.624804       -4.624804   1.000000   1.000000
    427         -4.613471       -4.613471   1.000000   1.000000
    428         -4.608558       -4.608558   1.000000   1.000000
    429         -4.592119       -4.592119   1.000000   1.000000
    430         -4.580562       -4.580562   1.000000   1.000000
    431         -4.577027       -4.577027   1.000000   1.000000
    432         -4.559407       -4.559407   1.000000   1.000000
    433         -4.550860       -4.550860   1.000000   1.000000
    434         -4.540442       -4.540442   1.000000   1.000000
    435         -4.527906       -4.527906   1.000000   1.000000
    436         -4.510657       -4.510657   1.000000   1.000000
    437         -4.502784       -4.502784   1.000000   1.000000
    438         -4.497211       -4.497211   1.000000   1.000000
    439         -4.477040       -4.477040   1.000000   1.000000
    440         -4.467264       -4.467264   1.000000   1.000000
    441         -4.459027       -4.459027   1.000000   1.000000
    442         -4.438268       -4.438268   1.000000   1.000000
    443         -4.432205       -4.432205   1.000000   1.000000
    444         -4.419180       -4.419180   1.000000   1.000000
    445         -4.404094       -4.404094   1.000000   1.000000
    446         -4.395624       -4.395624   1.000000   1.000000
    447         -4.385710       -4.385710   1.000000   1.000000
    448         -4.374854       -4.374854   1.000000   1.000000
    449         -4.367318       -4.367318   1.000000   1.000000
    450         -4.363414       -4.363414   1.000000   1.000000
    451         -4.354189       -4.354189   1.000000   1.000000
    452         -4.339035       -4.339035   1.000000   1.000000
    453         -4.338100       -4.338100   1.000000   1.000000
    454         -4.327769       -4.327769   1.000000   1.000000
    455         -4.323371       -4.323371   1.000000   1.000000
    456         -4.305333       -4.305333   1.000000   1.000000
    457         -4.302232       -4.302232   1.000000   1.000000
    458         -4.287439       -4.287439   1.000000   1.000000
    459         -4.283958       -4.283958   1.000000   1.000000
    460         -4.279032       -4.279032   1.000000   1.000000
    461         -4.269666       -4.269666   1.000000   1.000000
    462         -4.254449       -4.254449   1.000000   1.000000
    463         -4.250761       -4.250760   1.000000   1.000000
    464         -4.230857       -4.230857   1.000000   1.000000
    465         -4.226005       -4.226005   1.000000   1.000000
    466         -4.219306       -4.219306   1.000000   1.000000
    467         -4.213655       -4.213655   1.000000   1.000000
    468         -4.202407       -4.202407   1.000000   1.000000
    469         -4.196532       -4.196532   1.000000   1.000000
    470         -4.192544       -4.192544   1.000000   1.000000
    471         -4.178783       -4.178783   1.000000   1.000000
    472         -4.171818       -4.171818   1.000000   1.000000
    473         -4.167957       -4.167957   1.000000   1.000000
    474         -4.156701       -4.156701   1.000000   1.000000
    475         -4.145333       -4.145333   1.000000   1.000000
    476         -4.139276       -4.139276   1.000000   1.000000
    477         -4.129828       -4.129828   1.000000   1.000000
    478         -4.115907       -4.115907   1.000000   1.000000
    479         -4.108461       -4.108461   1.000000   1.000000
    480         -4.099483       -4.099483   1.000000   1.000000
    481         -4.097631       -4.097631   1.000000   1.000000
    482         -4.074910       -4.074910   1.000000   1.000000
    483         -4.062444       -4.062444   1.000000   1.000000
    484         -4.055144       -4.055143   1.000000   1.000000
    485         -4.051307       -4.051307   1.000000   1.000000
    486         -4.040671       -4.040671   1.000000   1.000000
    487         -4.021945       -4.021945   1.000000   1.000000
    488         -4.003060       -4.003060   1.000000   1.000000
    489         -3.996728       -3.996728   1.000000   1.000000
    490         -3.991601       -3.991601   1.000000   1.000000
    491         -3.981661       -3.981661   1.000000   1.000000
    492         -3.973430       -3.973430   1.000000   1.000000
    493         -3.971582       -3.971582   1.000000   1.000000
    494         -3.960498       -3.960498   1.000000   1.000000
    495         -3.946205       -3.946205   1.000000   1.000000
    496         -3.936020       -3.936020   1.000000   1.000000
    497         -3.924625       -3.924625   1.000000   1.000000
    498         -3.922059       -3.922059   1.000000   1.000000
    499         -3.905393       -3.905393   1.000000   1.000000
    500         -3.902280       -3.902280   1.000000   1.000000
    501         -3.900106       -3.900106   1.000000   1.000000
    502         -3.889943       -3.889943   1.000000   1.000000
    503         -3.873497       -3.873497   1.000000   1.000000
    504         -3.868494       -3.868494   1.000000   1.000000
    505         -3.857322       -3.857322   1.000000   1.000000
    506         -3.851527       -3.851527   1.000000   1.000000
    507         -3.829924       -3.829924   1.000000   1.000000
    508         -3.825027       -3.825027   1.000000   1.000000
    509         -3.815809       -3.815809   1.000000   1.000000
    510         -3.805052       -3.805052   1.000000   1.000000
    511         -3.802011       -3.802011   1.000000   1.000000
    512         -3.800045       -3.800045   1.000000   1.000000
    513         -3.792987       -3.792987   1.000000   1.000000
    514         -3.784244       -3.784244   1.000000   1.000000
    515         -3.782221       -3.782221   1.000000   1.000000
    516         -3.776089       -3.776089   1.000000   1.000000
    517         -3.763608       -3.763608   1.000000   1.000000
    518         -3.757678       -3.757678   1.000000   1.000000
    519         -3.748842       -3.748842   1.000000   1.000000
    520         -3.739485       -3.739485   1.000000   1.000000
    521         -3.738329       -3.738329   1.000000   1.000000
    522         -3.731038       -3.731038   1.000000   1.000000
    523         -3.721343       -3.721343   1.000000   1.000000
    524         -3.711306       -3.711306   1.000000   1.000000
    525         -3.700002       -3.700002   1.000000   1.000000
    526         -3.692805       -3.692805   1.000000   1.000000
    527         -3.689557       -3.689557   1.000000   1.000000
    528         -3.681664       -3.681664   1.000000   1.000000
    529         -3.674849       -3.674849   1.000000   1.000000
    530         -3.665031       -3.665031   1.000000   1.000000
    531         -3.662467       -3.662466   1.000000   1.000000
    532         -3.650920       -3.650920   1.000000   1.000000
    533         -3.643003       -3.643003   1.000000   1.000000
    534         -3.637234       -3.637234   1.000000   1.000000
    535         -3.625232       -3.625232   1.000000   1.000000
    536         -3.622660       -3.622660   1.000000   1.000000
    537         -3.612726       -3.612726   1.000000   1.000000
    538         -3.609334       -3.609334   1.000000   1.000000
    539         -3.602060       -3.602060   1.000000   1.000000
    540         -3.588781       -3.588781   1.000000   1.000000
    541         -3.583005       -3.583005   1.000000   1.000000
    542         -3.575119       -3.575119   1.000000   1.000000
    543         -3.564934       -3.564934   1.000000   1.000000
    544         -3.560024       -3.560024   1.000000   1.000000
    545         -3.556044       -3.556044   1.000000   1.000000
    546         -3.550952       -3.550952   1.000000   1.000000
    547         -3.544651       -3.544651   1.000000   1.000000
    548         -3.537133       -3.537133   1.000000   1.000000
    549         -3.536407       -3.536407   1.000000   1.000000
    550         -3.526078       -3.526078   1.000000   1.000000
    551         -3.517842       -3.517842   1.000000   1.000000
    552         -3.513548       -3.513548   1.000000   1.000000
    553         -3.506175       -3.506175   1.000000   1.000000
    554         -3.504341       -3.504341   1.000000   1.000000
    555         -3.497624       -3.497624   1.000000   1.000000
    556         -3.489808       -3.489808   1.000000   1.000000
    557         -3.489453       -3.489453   1.000000   1.000000
    558         -3.480112       -3.480112   1.000000   1.000000
    559         -3.474552       -3.474552   1.000000   1.000000
    560         -3.470528       -3.470528   1.000000   1.000000
    561         -3.462722       -3.462722   1.000000   1.000000
    562         -3.458005       -3.458005   1.000000   1.000000
    563         -3.452834       -3.452834   1.000000   1.000000
    564         -3.448410       -3.448410   1.000000   1.000000
    565         -3.445308       -3.445308   1.000000   1.000000
    566         -3.437061       -3.437061   1.000000   1.000000
    567         -3.428828       -3.428828   1.000000   1.000000
    568         -3.421143       -3.421143   1.000000   1.000000
    569         -3.418988       -3.418988   1.000000   1.000000
    570         -3.413456       -3.413456   1.000000   1.000000
    571         -3.408751       -3.408751   1.000000   1.000000
    572         -3.405042       -3.405042   1.000000   1.000000
    573         -3.391063       -3.391063   1.000000   1.000000
    574         -3.387310       -3.387310   1.000000   1.000000
    575         -3.385984       -3.385984   1.000000   1.000000
    576         -3.379285       -3.379285   1.000000   1.000000
    577         -3.376716       -3.376716   1.000000   1.000000
    578         -3.369295       -3.369295   1.000000   1.000000
    579         -3.368397       -3.368397   1.000000   1.000000
    580         -3.364728       -3.364728   1.000000   1.000000
    581         -3.356309       -3.356309   1.000000   1.000000
    582         -3.350386       -3.350386   1.000000   1.000000
    583         -3.343624       -3.343624   1.000000   1.000000
    584         -3.336122       -3.336122   1.000000   1.000000
    585         -3.334815       -3.334815   1.000000   1.000000
    586         -3.328868       -3.328868   1.000000   1.000000
    587         -3.321883       -3.321883   1.000000   1.000000
    588         -3.317939       -3.317939   1.000000   1.000000
    589         -3.314149       -3.314149   1.000000   1.000000
    590         -3.309749       -3.309749   1.000000   1.000000
    591         -3.305813       -3.305813   1.000000   1.000000
    592         -3.300031       -3.300031   1.000000   1.000000
    593         -3.297055       -3.297055   1.000000   1.000000
    594         -3.295853       -3.295853   1.000000   1.000000
    595         -3.284812       -3.284812   1.000000   1.000000
    596         -3.284352       -3.284352   1.000000   1.000000
    597         -3.280699       -3.280699   1.000000   1.000000
    598         -3.272718       -3.272718   1.000000   1.000000
    599         -3.269996       -3.269996   1.000000   1.000000
    600         -3.261596       -3.261596   1.000000   1.000000
    601         -3.257139       -3.257139   1.000000   1.000000
    602         -3.249231       -3.249231   1.000000   1.000000
    603         -3.246908       -3.246908   1.000000   1.000000
    604         -3.243855       -3.243855   1.000000   1.000000
    605         -3.235419       -3.235419   1.000000   1.000000
    606         -3.228344       -3.228344   1.000000   1.000000
    607         -3.225630       -3.225630   1.000000   1.000000
    608         -3.222174       -3.222174   1.000000   1.000000
    609         -3.217517       -3.217516   1.000000   1.000000
    610         -3.207727       -3.207727   1.000000   1.000000
    611         -3.204457       -3.204457   1.000000   1.000000
    612         -3.185629       -3.185629   1.000000   1.000000
    613         -3.182329       -3.182329   1.000000   1.000000
    614         -3.172855       -3.172855   1.000000   1.000000
    615         -3.171833       -3.171833   1.000000   1.000000
    616         -3.167900       -3.167900   1.000000   1.000000
    617         -3.157855       -3.157855   1.000000   1.000000
    618         -3.155291       -3.155291   1.000000   1.000000
    619         -3.145089       -3.145089   1.000000   1.000000
    620         -3.138580       -3.138580   1.000000   1.000000
    621         -3.136039       -3.136039   1.000000   1.000000
    622         -3.131925       -3.131925   1.000000   1.000000
    623         -3.115168       -3.115168   1.000000   1.000000
    624         -3.111653       -3.111653   1.000000   1.000000
    625         -3.107126       -3.107126   1.000000   1.000000
    626         -3.096724       -3.096724   1.000000   1.000000
    627         -3.092849       -3.092849   1.000000   1.000000
    628         -3.091037       -3.091037   1.000000   1.000000
    629         -3.083714       -3.083713   1.000000   1.000000
    630         -3.078498       -3.078498   1.000000   1.000000
    631         -3.072442       -3.072442   1.000000   1.000000
    632         -3.067830       -3.067830   1.000000   1.000000
    633         -3.065499       -3.065499   1.000000   1.000000
    634         -3.050565       -3.050565   1.000000   1.000000
    635         -3.049489       -3.049489   1.000000   1.000000
    636         -3.040312       -3.040312   1.000000   1.000000
    637         -3.035128       -3.035128   1.000000   1.000000
    638         -3.025346       -3.025346   1.000000   1.000000
    639         -3.019071       -3.019071   1.000000   1.000000
    640         -3.018053       -3.018053   1.000000   1.000000
    641         -3.002996       -3.002996   1.000000   1.000000
    642         -2.997088       -2.997088   1.000000   1.000000
    643         -2.995778       -2.995778   1.000000   1.000000
    644         -2.971832       -2.971832   1.000000   1.000000
    645         -2.969157       -2.969157   1.000000   1.000000
    646         -2.956258       -2.956258   1.000000   1.000000
    647         -2.948929       -2.948929   1.000000   1.000000
    648         -2.943381       -2.943381   1.000000   1.000000
    649         -2.916920       -2.916920   1.000000   1.000000
    650         -2.902633       -2.902632   1.000000   1.000000
    651         -2.893822       -2.893822   1.000000   1.000000
    652         -2.891067       -2.891067   1.000000   1.000000
    653         -2.881185       -2.881185   1.000000   1.000000
    654         -2.870839       -2.870839   1.000000   1.000000
    655         -2.867468       -2.867468   1.000000   1.000000
    656         -2.857002       -2.857002   1.000000   1.000000
    657         -2.842400       -2.842400   1.000000   1.000000
    658         -2.841380       -2.841380   1.000000   1.000000
    659         -2.837803       -2.837803   1.000000   1.000000
    660         -2.826252       -2.826252   1.000000   1.000000
    661         -2.816569       -2.816569   1.000000   1.000000
    662         -2.797848       -2.797847   1.000000   1.000000
    663         -2.792136       -2.792136   1.000000   1.000000
    664         -2.775239       -2.775239   1.000000   1.000000
    665         -2.773770       -2.773770   1.000000   1.000000
    666         -2.765876       -2.765876   1.000000   1.000000
    667         -2.750972       -2.750972   1.000000   1.000000
    668         -2.738891       -2.738891   1.000000   1.000000
    669         -2.732491       -2.732491   1.000000   1.000000
    670         -2.713494       -2.713494   1.000000   1.000000
    671         -2.705632       -2.705632   1.000000   1.000000
    672         -2.684325       -2.684325   1.000000   1.000000
    673         -2.672533       -2.672533   1.000000   1.000000
    674         -2.657411       -2.657411   1.000000   1.000000
    675         -2.639169       -2.639169   1.000000   1.000000
    676         -2.635825       -2.635825   1.000000   1.000000
    677         -2.615960       -2.615960   1.000000   1.000000
    678         -2.610114       -2.610114   1.000000   1.000000
    679         -2.580842       -2.580842   1.000000   1.000000
    680         -2.569096       -2.569096   1.000000   1.000000
    681         -2.553895       -2.553895   1.000000   1.000000
    682         -2.534367       -2.534367   1.000000   1.000000
    683         -2.508785       -2.508785   1.000000   1.000000
    684         -2.494734       -2.494734   1.000000   1.000000
    685         -2.485667       -2.485667   1.000000   1.000000
    686         -2.462392       -2.462392   1.000000   1.000000
    687         -2.455037       -2.455037   1.000000   1.000000
    688         -2.441707       -2.441707   1.000000   1.000000
    689         -2.431737       -2.431737   1.000000   1.000000
    690         -2.418509       -2.418509   1.000000   1.000000
    691         -2.409517       -2.409517   1.000000   1.000000
    692         -2.396291       -2.396291   1.000000   1.000000
    693         -2.386851       -2.386851   1.000000   1.000000
    694         -2.379396       -2.379396   1.000000   1.000000
    695         -2.363771       -2.363771   1.000000   1.000000
    696         -2.352678       -2.352677   1.000000   1.000000
    697         -2.333478       -2.333478   1.000000   1.000000
    698         -2.329245       -2.329245   1.000000   1.000000
    699         -2.319310       -2.319310   1.000000   1.000000
    700         -2.310847       -2.310847   1.000000   1.000000
    701         -2.307831       -2.307831   1.000000   1.000000
    702         -2.304366       -2.304366   1.000000   1.000000
    703         -2.296508       -2.296508   1.000000   1.000000
    704         -2.286979       -2.286979   1.000000   1.000000
    705         -2.279773       -2.279773   1.000000   1.000000
    706         -2.263267       -2.263267   1.000000   1.000000
    707         -2.261872       -2.261872   1.000000   1.000000
    708         -2.255968       -2.255968   1.000000   1.000000
    709         -2.246275       -2.246275   1.000000   1.000000
    710         -2.242861       -2.242861   1.000000   1.000000
    711         -2.234020       -2.234020   1.000000   1.000000
    712         -2.229342       -2.229342   1.000000   1.000000
    713         -2.220843       -2.220842   1.000000   1.000000
    714         -2.210025       -2.210025   1.000000   1.000000
    715         -2.205604       -2.205604   1.000000   1.000000
    716         -2.202326       -2.202326   1.000000   1.000000
    717         -2.197147       -2.197147   1.000000   1.000000
    718         -2.190375       -2.190375   1.000000   1.000000
    719         -2.184506       -2.184506   1.000000   1.000000
    720         -2.178089       -2.178089   1.000000   1.000000
    721         -2.167010       -2.167010   1.000000   1.000000
    722         -2.159801       -2.159801   1.000000   1.000000
    723         -2.159540       -2.159540   1.000000   1.000000
    724         -2.155325       -2.155325   1.000000   1.000000
    725         -2.145026       -2.145026   1.000000   1.000000
    726         -2.137108       -2.137108   1.000000   1.000000
    727         -2.123512       -2.123512   1.000000   1.000000
    728         -2.115895       -2.115895   1.000000   1.000000
    729         -2.111284       -2.111284   1.000000   1.000000
    730         -2.110006       -2.110006   1.000000   1.000000
    731         -2.097110       -2.097110   1.000000   1.000000
    732         -2.091003       -2.091003   1.000000   1.000000
    733         -2.088558       -2.088558   1.000000   1.000000
    734         -2.082635       -2.082635   1.000000   1.000000
    735         -2.078095       -2.078095   1.000000   1.000000
    736         -2.069003       -2.069003   1.000000   1.000000
    737         -2.066308       -2.066308   1.000000   1.000000
    738         -2.062931       -2.062931   1.000000   1.000000
    739         -2.053741       -2.053741   1.000000   1.000000
    740         -2.045290       -2.045290   1.000000   1.000000
    741         -2.041540       -2.041540   1.000000   1.000000
    742         -2.038968       -2.038968   1.000000   1.000000
    743         -2.033563       -2.033563   1.000000   1.000000
    744         -2.026679       -2.026679   1.000000   1.000000
    745         -2.017630       -2.017630   1.000000   1.000000
    746         -2.016436       -2.016436   1.000000   1.000000
    747         -2.003476       -2.003476   1.000000   1.000000
    748         -1.996248       -1.996248   1.000000   1.000000
    749         -1.988701       -1.988701   1.000000   1.000000
    750         -1.986926       -1.986926   1.000000   1.000000
    751         -1.984016       -1.984016   1.000000   1.000000
    752         -1.974954       -1.974954   1.000000   1.000000
    753         -1.970203       -1.970203   1.000000   1.000000
    754         -1.966018       -1.966018   1.000000   1.000000
    755         -1.959240       -1.959240   1.000000   1.000000
    756         -1.954364       -1.954364   1.000000   1.000000
    757         -1.947253       -1.947253   1.000000   1.000000
    758         -1.942023       -1.942023   1.000000   1.000000
    759         -1.936851       -1.936851   1.000000   1.000000
    760         -1.921914       -1.921914   1.000000   1.000000
    761         -1.917561       -1.917561   1.000000   1.000000
    762         -1.915317       -1.915317   1.000000   1.000000
    763         -1.909453       -1.909453   1.000000   1.000000
    764         -1.902400       -1.902400   1.000000   1.000000
    765         -1.899121       -1.899121   1.000000   1.000000
    766         -1.889231       -1.889231   1.000000   1.000000
    767         -1.880342       -1.880342   1.000000   1.000000
    768         -1.875913       -1.875913   1.000000   1.000000
    769         -1.866112       -1.866111   1.000000   1.000000
    770         -1.860013       -1.860013   1.000000   1.000000
    771         -1.853256       -1.853256   1.000000   1.000000
    772         -1.850050       -1.850050   1.000000   1.000000
    773         -1.838808       -1.838808   1.000000   1.000000
    774         -1.834904       -1.834904   1.000000   1.000000
    775         -1.828594       -1.828594   1.000000   1.000000
    776         -1.824293       -1.824293   1.000000   1.000000
    777         -1.820246       -1.820246   1.000000   1.000000
    778         -1.807298       -1.807298   1.000000   1.000000
    779         -1.801830       -1.801830   1.000000   1.000000
    780         -1.778906       -1.778906   1.000000   1.000000
    781         -1.775311       -1.775311   1.000000   1.000000
    782         -1.769679       -1.769679   1.000000   1.000000
    783         -1.693761       -1.693761   1.000000   1.000000
    784         -1.662757       -1.662757   1.000000   1.000000
    785         -1.594862       -1.594862   1.000000   1.000000
    786         -1.546139       -1.546140   1.000000   1.000000
    787         -1.414879       -1.414879   1.000000   1.000000
    788         -0.457967       -0.457967   1.000000   1.000000
    789          0.159623        0.159623   1.000000   1.000000
    790          4.039960        4.039966   0.000000   0.000000
    791          4.422775        4.422786   0.000000   0.000000
    792          4.520692        4.520694   0.000000   0.000000
    793          4.549917        4.549918   0.000000   0.000000
    794          4.698461        4.698462   0.000000   0.000000
    795          4.745020        4.745021   0.000000   0.000000
    796          4.790510        4.790513   0.000000   0.000000
    797          4.950345        4.950358   0.000000   0.000000
    798          5.131616        5.131620   0.000000   0.000000
    799          5.176425        5.176426   0.000000   0.000000
    800          5.275223        5.275223   0.000000   0.000000
    801          5.342884        5.342888   0.000000   0.000000
    802          5.382680        5.382681   0.000000   0.000000
    803          5.564967        5.564973   0.000000   0.000000
    804          5.578626        5.578640   0.000000   0.000000
    805          5.677222        5.677227   0.000000   0.000000
    806          5.727898        5.727899   0.000000   0.000000
    807          5.730868        5.730871   0.000000   0.000000
    808          5.791220        5.791221   0.000000   0.000000
    809          5.814260        5.814259   0.000000   0.000000
    810          5.843898        5.843899   0.000000   0.000000
    811          5.882152        5.882156   0.000000   0.000000
    812          5.906299        5.906301   0.000000   0.000000
    813          5.961726        5.961729   0.000000   0.000000
    814          5.971449        5.971458   0.000000   0.000000
    815          5.989050        5.989051   0.000000   0.000000
    816          5.997198        5.997205   0.000000   0.000000
    817          6.077863        6.077865   0.000000   0.000000
    818          6.136061        6.136060   0.000000   0.000000
    819          6.168091        6.168093   0.000000   0.000000
    820          6.185491        6.185500   0.000000   0.000000
    821          6.228316        6.228330   0.000000   0.000000
    822          6.250624        6.250626   0.000000   0.000000
    823          6.273950        6.273950   0.000000   0.000000
    824          6.305017        6.305018   0.000000   0.000000
    825          6.343592        6.343600   0.000000   0.000000
    826          6.379737        6.379746   0.000000   0.000000
    827          6.405287        6.405287   0.000000   0.000000
    828          6.432900        6.432903   0.000000   0.000000
    829          6.548125        6.548132   0.000000   0.000000
    830          6.552552        6.552555   0.000000   0.000000
    831          6.591391        6.591393   0.000000   0.000000
    832          6.641562        6.641568   0.000000   0.000000
    833          6.651197        6.651199   0.000000   0.000000
    834          6.689495        6.689500   0.000000   0.000000
    835          6.736327        6.736332   0.000000   0.000000
    836          6.747313        6.747353   0.000000   0.000000
    837          6.754576        6.754577   0.000000   0.000000
    838          6.782579        6.782581   0.000000   0.000000
    839          6.793091        6.793091   0.000000   0.000000
    840          6.842853        6.842853   0.000000   0.000000
    841          6.852759        6.852760   0.000000   0.000000
    842          6.867914        6.867914   0.000000   0.000000
    843          6.894452        6.894453   0.000000   0.000000
    844          6.902077        6.902089   0.000000   0.000000
    845          6.909204        6.909205   0.000000   0.000000
    846          6.930636        6.930636   0.000000   0.000000
    847          6.950494        6.950498   0.000000   0.000000
    848          6.981603        6.981608   0.000000   0.000000
    849          7.003366        7.003367   0.000000   0.000000
    850          7.036392        7.036394   0.000000   0.000000
    851          7.058172        7.058178   0.000000   0.000000
    852          7.079885        7.079888   0.000000   0.000000
    853          7.089174        7.089174   0.000000   0.000000
    854          7.100921        7.100922   0.000000   0.000000
    855          7.140308        7.140313   0.000000   0.000000
    856          7.159470        7.159473   0.000000   0.000000
    857          7.166170        7.166178   0.000000   0.000000
    858          7.201106        7.201109   0.000000   0.000000
    859          7.209163        7.209168   0.000000   0.000000
    860          7.217360        7.217364   0.000000   0.000000
    861          7.231988        7.232029   0.000000   0.000000
    862          7.249788        7.249791   0.000000   0.000000
    863          7.272568        7.272568   0.000000   0.000000
    864          7.279285        7.279286   0.000000   0.000000
    865          7.282655        7.282663   0.000000   0.000000
    866          7.290116        7.290121   0.000000   0.000000
    867          7.312923        7.312923   0.000000   0.000000
    868          7.333173        7.333183   0.000000   0.000000
    869          7.346155        7.346156   0.000000   0.000000
    870          7.351294        7.351307   0.000000   0.000000
    871          7.364921        7.364921   0.000000   0.000000
    872          7.370543        7.370551   0.000000   0.000000
    873          7.378243        7.378246   0.000000   0.000000
    874          7.384917        7.384921   0.000000   0.000000
    875          7.399864        7.399864   0.000000   0.000000
    876          7.412488        7.412489   0.000000   0.000000
    877          7.424129        7.424130   0.000000   0.000000
    878          7.436560        7.436563   0.000000   0.000000
    879          7.441912        7.441914   0.000000   0.000000
    880          7.455774        7.455775   0.000000   0.000000
    881          7.473032        7.473033   0.000000   0.000000
    882          7.476301        7.476303   0.000000   0.000000
    883          7.485458        7.485459   0.000000   0.000000
    884          7.494648        7.494649   0.000000   0.000000
    885          7.507612        7.507614   0.000000   0.000000
    886          7.522006        7.522007   0.000000   0.000000
    887          7.525984        7.525983   0.000000   0.000000
    888          7.535060        7.535062   0.000000   0.000000
    889          7.541481        7.541481   0.000000   0.000000
    890          7.555289        7.555290   0.000000   0.000000
    891          7.578255        7.578258   0.000000   0.000000
    892          7.591030        7.591032   0.000000   0.000000
    893          7.596598        7.596598   0.000000   0.000000
    894          7.608700        7.608700   0.000000   0.000000
    895          7.611471        7.611471   0.000000   0.000000
    896          7.620803        7.620803   0.000000   0.000000
    897          7.629441        7.629444   0.000000   0.000000
    898          7.646605        7.646605   0.000000   0.000000
    899          7.658316        7.658316   0.000000   0.000000
    900          7.660733        7.660735   0.000000   0.000000
    901          7.676246        7.676246   0.000000   0.000000
    902          7.680049        7.680048   0.000000   0.000000
    903          7.687962        7.687963   0.000000   0.000000
    904          7.695707        7.695707   0.000000   0.000000
    905          7.704679        7.704681   0.000000   0.000000
    906          7.714539        7.714539   0.000000   0.000000
    907          7.726096        7.726098   0.000000   0.000000
    908          7.735799        7.735799   0.000000   0.000000
    909          7.745658        7.745660   0.000000   0.000000
    910          7.748211        7.748211   0.000000   0.000000
    911          7.754954        7.754955   0.000000   0.000000
    912          7.773708        7.773708   0.000000   0.000000
    913          7.784556        7.784560   0.000000   0.000000
    914          7.788380        7.788381   0.000000   0.000000
    915          7.793181        7.793181   0.000000   0.000000
    916          7.799150        7.799150   0.000000   0.000000
    917          7.806620        7.806620   0.000000   0.000000
    918          7.813235        7.813234   0.000000   0.000000
    919          7.819407        7.819407   0.000000   0.000000
    920          7.829510        7.829511   0.000000   0.000000
    921          7.845048        7.845049   0.000000   0.000000
    922          7.847517        7.847517   0.000000   0.000000
    923          7.850720        7.850721   0.000000   0.000000
    924          7.864737        7.864737   0.000000   0.000000
    925          7.867420        7.867421   0.000000   0.000000
    926          7.881562        7.881562   0.000000   0.000000
    927          7.886956        7.886956   0.000000   0.000000
    928          7.896392        7.896391   0.000000   0.000000
    929          7.898485        7.898486   0.000000   0.000000
    930          7.902935        7.902935   0.000000   0.000000
    931          7.927847        7.927848   0.000000   0.000000
    932          7.935698        7.935698   0.000000   0.000000
    933          7.944058        7.944059   0.000000   0.000000
    934          7.950371        7.950371   0.000000   0.000000
    935          7.959326        7.959326   0.000000   0.000000
    936          7.963467        7.963467   0.000000   0.000000
    937          7.974185        7.974185   0.000000   0.000000
    938          7.987396        7.987397   0.000000   0.000000
    939          7.995230        7.995231   0.000000   0.000000
    940          8.004649        8.004649   0.000000   0.000000
    941          8.009658        8.009658   0.000000   0.000000
    942          8.018230        8.018229   0.000000   0.000000
    943          8.031615        8.031615   0.000000   0.000000
    944          8.039285        8.039287   0.000000   0.000000
    945          8.049245        8.049244   0.000000   0.000000
    946          8.058838        8.058838   0.000000   0.000000
    947          8.078095        8.078095   0.000000   0.000000
    948          8.087334        8.087334   0.000000   0.000000
    949          8.095026        8.095026   0.000000   0.000000
    950          8.097197        8.097199   0.000000   0.000000
    951          8.106711        8.106712   0.000000   0.000000
    952          8.111321        8.111322   0.000000   0.000000
    953          8.123291        8.123291   0.000000   0.000000
    954          8.130818        8.130818   0.000000   0.000000
    955          8.137576        8.137576   0.000000   0.000000
    956          8.138527        8.138528   0.000000   0.000000
    957          8.159359        8.159359   0.000000   0.000000
    958          8.167743        8.167743   0.000000   0.000000
    959          8.175672        8.175672   0.000000   0.000000
    960          8.181693        8.181693   0.000000   0.000000
    961          8.192585        8.192588   0.000000   0.000000
    962          8.195974        8.195975   0.000000   0.000000
    963          8.208248        8.208249   0.000000   0.000000
    964          8.217311        8.217311   0.000000   0.000000
    965          8.222903        8.222903   0.000000   0.000000
    966          8.232174        8.232175   0.000000   0.000000
    967          8.238752        8.238753   0.000000   0.000000
    968          8.253437        8.253437   0.000000   0.000000
    969          8.256356        8.256357   0.000000   0.000000
    970          8.271874        8.271876   0.000000   0.000000
    971          8.277621        8.277622   0.000000   0.000000
    972          8.280817        8.280817   0.000000   0.000000
    973          8.291064        8.291064   0.000000   0.000000
    974          8.296714        8.296714   0.000000   0.000000
    975          8.305171        8.305176   0.000000   0.000000
    976          8.312705        8.312705   0.000000   0.000000
    977          8.320371        8.320369   0.000000   0.000000
    978          8.327075        8.327076   0.000000   0.000000
    979          8.333263        8.333263   0.000000   0.000000
    980          8.346261        8.346261   0.000000   0.000000
    981          8.353794        8.353794   0.000000   0.000000
    982          8.358436        8.358436   0.000000   0.000000
    983          8.374524        8.374525   0.000000   0.000000
    984          8.379759        8.379760   0.000000   0.000000
    985          8.387492        8.387492   0.000000   0.000000
    986          8.399805        8.399805   0.000000   0.000000
    987          8.413950        8.413952   0.000000   0.000000
    988          8.423466        8.423466   0.000000   0.000000
    989          8.433161        8.433161   0.000000   0.000000
    990          8.445496        8.445496   0.000000   0.000000
    991          8.450304        8.450306   0.000000   0.000000
    992          8.460915        8.460916   0.000000   0.000000
    993          8.462974        8.462974   0.000000   0.000000
    994          8.468826        8.468826   0.000000   0.000000
    995          8.495389        8.495389   0.000000   0.000000
    996          8.502451        8.502451   0.000000   0.000000
    997          8.509482        8.509482   0.000000   0.000000
    998          8.526189        8.526190   0.000000   0.000000
    999          8.530256        8.530256   0.000000   0.000000
   1000          8.541952        8.541954   0.000000   0.000000
   1001          8.553803        8.553803   0.000000   0.000000
   1002          8.563277        8.563277   0.000000   0.000000
   1003          8.588709        8.588709   0.000000   0.000000
   1004          8.593227        8.593229   0.000000   0.000000
   1005          8.598809        8.598809   0.000000   0.000000
   1006          8.611793        8.611794   0.000000   0.000000
   1007          8.621764        8.621764   0.000000   0.000000
   1008          8.633811        8.633811   0.000000   0.000000
   1009          8.642822        8.642822   0.000000   0.000000
   1010          8.660216        8.660216   0.000000   0.000000
   1011          8.674282        8.674282   0.000000   0.000000
   1012          8.683636        8.683636   0.000000   0.000000
   1013          8.685741        8.685741   0.000000   0.000000
   1014          8.693671        8.693671   0.000000   0.000000
   1015          8.712612        8.712615   0.000000   0.000000
   1016          8.726217        8.726217   0.000000   0.000000
   1017          8.741454        8.741454   0.000000   0.000000
   1018          8.747980        8.747979   0.000000   0.000000
   1019          8.767794        8.767794   0.000000   0.000000
   1020          8.777953        8.777953   0.000000   0.000000
   1021          8.779390        8.779390   0.000000   0.000000
   1022          8.796350        8.796350   0.000000   0.000000
   1023          8.803907        8.803906   0.000000   0.000000
   1024          8.810115        8.810116   0.000000   0.000000
   1025          8.819503        8.819504   0.000000   0.000000
   1026          8.827655        8.827656   0.000000   0.000000
   1027          8.836865        8.836865   0.000000   0.000000
   1028          8.845504        8.845504   0.000000   0.000000
   1029          8.852024        8.852025   0.000000   0.000000
   1030          8.868165        8.868164   0.000000   0.000000
   1031          8.878363        8.878363   0.000000   0.000000
   1032          8.881632        8.881632   0.000000   0.000000
   1033          8.905698        8.905699   0.000000   0.000000
   1034          8.921911        8.921911   0.000000   0.000000
   1035          8.950721        8.950721   0.000000   0.000000
   1036          8.957538        8.957537   0.000000   0.000000
   1037          8.967239        8.967239   0.000000   0.000000
   1038          8.982540        8.982537   0.000000   0.000000
   1039          8.991655        8.991655   0.000000   0.000000
   1040          9.000916        9.001044   0.000000   0.000000
