       N       E                     dE             d eps       ncg     rms          rms(c)
DAV:   1     0.178062684881E+05    0.17806E+05   -0.85816E+05  4272   0.143E+03
DAV:   2    -0.268450930758E+03   -0.18075E+05   -0.17292E+05  5744   0.359E+02
DAV:   3    -0.260175167304E+04   -0.23333E+04   -0.23197E+04  4856   0.141E+02
DAV:   4    -0.266600453069E+04   -0.64253E+02   -0.64009E+02  5120   0.252E+01
DAV:   5    -0.266755001405E+04   -0.15455E+01   -0.15434E+01  5072   0.378E+00    0.154E+02
RMM:   6    -0.201412214838E+04    0.65343E+03   -0.13569E+03  4170   0.347E+01    0.685E+01
RMM:   7    -0.209433676759E+04   -0.80215E+02   -0.45512E+02  4160   0.188E+01    0.377E+01
RMM:   8    -0.212044455200E+04   -0.26108E+02   -0.52015E+01  4160   0.814E+00    0.238E+01
RMM:   9    -0.219751695288E+04   -0.77072E+02   -0.41318E+01  4160   0.683E+00    0.135E+01
RMM:  10    -0.224878100003E+04   -0.51264E+02   -0.25035E+01  4164   0.411E+00    0.999E+00
RMM:  11    -0.232721876828E+04   -0.78438E+02   -0.67859E+01  4599   0.545E+00    0.828E+00
RMM:  12    -0.236838345523E+04   -0.41165E+02   -0.34234E+01  4532   0.456E+00    0.381E+00
RMM:  13    -0.238240800056E+04   -0.14025E+02   -0.10229E+01  4282   0.244E+00    0.233E+00
RMM:  14    -0.238615745117E+04   -0.37495E+01   -0.33013E+00  4165   0.134E+00    0.210E+00
RMM:  15    -0.238728976760E+04   -0.11323E+01   -0.11338E+00  4162   0.692E-01    0.556E-01
RMM:  16    -0.238751328689E+04   -0.22352E+00   -0.32694E-01  4239   0.434E-01    0.435E-01
RMM:  17    -0.238760323291E+04   -0.89946E-01   -0.10625E-01  4196   0.209E-01    0.331E-01
RMM:  18    -0.238762527576E+04   -0.22043E-01   -0.39907E-02  4160   0.158E-01    0.869E-02
RMM:  19    -0.238763522028E+04   -0.99445E-02   -0.14021E-02  4163   0.947E-02    0.951E-02
RMM:  20    -0.238764319723E+04   -0.79769E-02   -0.68465E-03  4161   0.618E-02    0.683E-02
RMM:  21    -0.238764723276E+04   -0.40355E-02   -0.34730E-03  4160   0.436E-02    0.334E-02
RMM:  22    -0.238764904401E+04   -0.18113E-02   -0.16040E-03  4169   0.299E-02    0.141E-02
RMM:  23    -0.238764977021E+04   -0.72620E-03   -0.73109E-04  4166   0.214E-02    0.136E-02
RMM:  24    -0.238765011142E+04   -0.34121E-03   -0.32029E-04  4200   0.132E-02    0.141E-02
RMM:  25    -0.238765024097E+04   -0.12954E-03   -0.12951E-04  4199   0.807E-03    0.485E-03
RMM:  26    -0.238765031156E+04   -0.70598E-04   -0.62648E-05  4128   0.569E-03    0.452E-03
RMM:  27    -0.238765034273E+04   -0.31169E-04   -0.23596E-05  3601   0.316E-03    0.398E-03
RMM:  28    -0.238765034603E+04   -0.32921E-05   -0.74837E-06  3321   0.185E-03    0.200E-03
RMM:  29    -0.238765034759E+04   -0.15696E-05   -0.33970E-06  3026   0.146E-03    0.111E-03
RMM:  30    -0.238765034795E+04   -0.35047E-06   -0.91005E-07  2590   0.716E-04
   1 F= -.24195264E+04 E0= -.24195264E+04  d E =-.933778E-11  mag=     0.0000
       N       E                     dE             d eps       ncg     rms          rms(c)
DAV:   1    -0.238764997132E+04    0.37628E-03   -0.78543E-02  4464   0.152E-01    0.804E-02
RMM:   2    -0.238765001241E+04   -0.41096E-04   -0.54450E-04  3522   0.119E-02    0.489E-02
RMM:   3    -0.238765002048E+04   -0.80626E-05   -0.13524E-04  3403   0.588E-03    0.389E-03
RMM:   4    -0.238765002370E+04   -0.32233E-05   -0.33301E-05  3098   0.258E-03    0.293E-03
RMM:   5    -0.238765002412E+04   -0.42000E-06   -0.57021E-06  2445   0.112E-03
   2 F= -.24195259E+04 E0= -.24195259E+04  d E =-.222179E-11  mag=     0.0000
       N       E                     dE             d eps       ncg     rms          rms(c)
DAV:   1    -0.238764959681E+04    0.42689E-03   -0.31452E-01  4632   0.303E-01    0.162E-01
RMM:   2    -0.238764970724E+04   -0.11042E-03   -0.17670E-03  3707   0.229E-02    0.978E-02
RMM:   3    -0.238764973061E+04   -0.23371E-04   -0.44744E-04  3612   0.111E-02    0.678E-03
RMM:   4    -0.238764973875E+04   -0.81443E-05   -0.89657E-05  3390   0.454E-03    0.529E-03
RMM:   5    -0.238764974002E+04   -0.12696E-05   -0.21748E-05  3138   0.225E-03    0.220E-03
RMM:   6    -0.238764974026E+04   -0.23909E-06   -0.33732E-06  2518   0.110E-03
   3 F= -.24195259E+04 E0= -.24195259E+04  d E =-.363078E-14  mag=     0.0000
       N       E                     dE             d eps       ncg     rms          rms(c)
DAV:   1    -0.238764864412E+04    0.10959E-02   -0.16183E-01  4672   0.221E-01    0.151E-01
RMM:   2    -0.238764851312E+04    0.13100E-03   -0.13252E-03  3652   0.204E-02    0.877E-02
RMM:   3    -0.238764848745E+04    0.25669E-04   -0.74472E-04  3589   0.124E-02    0.184E-02
RMM:   4    -0.238764848252E+04    0.49266E-05   -0.71917E-05  3267   0.501E-03    0.131E-02
RMM:   5    -0.238764848332E+04   -0.79081E-06   -0.67529E-05  3462   0.407E-03    0.963E-03
RMM:   6    -0.238764847829E+04    0.50279E-05   -0.13233E-05  3330   0.275E-03    0.299E-03
RMM:   7    -0.238764847859E+04   -0.29957E-06   -0.59179E-06  2853   0.155E-03
   4 F= -.24195245E+04 E0= -.24195245E+04  d E =-.408839E-13  mag=     0.0000
       N       E                     dE             d eps       ncg     rms          rms(c)
DAV:   1    -0.238764898098E+04   -0.50270E-03   -0.32636E-01  4648   0.314E-01    0.243E-01
RMM:   2    -0.238764848074E+04    0.50024E-03   -0.37011E-03  3739   0.349E-02    0.138E-01
RMM:   3    -0.238764837369E+04    0.10706E-03   -0.22476E-03  3686   0.212E-02    0.334E-02
RMM:   4    -0.238764835899E+04    0.14700E-04   -0.21142E-04  3324   0.850E-03    0.242E-02
RMM:   5    -0.238764836207E+04   -0.30838E-05   -0.22502E-04  3545   0.634E-03    0.204E-02
RMM:   6    -0.238764834629E+04    0.15782E-04   -0.43808E-05  3384   0.347E-03    0.494E-03
RMM:   7    -0.238764834838E+04   -0.20904E-05   -0.18007E-05  3335   0.257E-03    0.352E-03
RMM:   8    -0.238764834705E+04    0.13271E-05   -0.53943E-06  3196   0.212E-03    0.266E-03
RMM:   9    -0.238764834657E+04    0.48446E-06   -0.12032E-06  2287   0.851E-04
   5 F= -.24195243E+04 E0= -.24195243E+04  d E =-.113757E-12  mag=     0.0000
       N       E                     dE             d eps       ncg     rms          rms(c)
DAV:   1    -0.238764805978E+04    0.28727E-03   -0.15666E-01  4368   0.215E-01    0.112E-01
RMM:   2    -0.238764811319E+04   -0.53410E-04   -0.81034E-04  3531   0.161E-02    0.675E-02
RMM:   3    -0.238764812312E+04   -0.99313E-05   -0.21071E-04  3444   0.769E-03    0.467E-03
RMM:   4    -0.238764812669E+04   -0.35625E-05   -0.40195E-05  3099   0.319E-03    0.347E-03
RMM:   5    -0.238764812746E+04   -0.77256E-06   -0.10455E-05  2734   0.151E-03    0.165E-03
RMM:   6    -0.238764812760E+04   -0.13868E-06   -0.13418E-06  2185   0.721E-04
   6 F= -.24195242E+04 E0= -.24195242E+04  d E =-.377777E-12  mag=     0.0000
       N       E                     dE             d eps       ncg     rms          rms(c)
DAV:   1    -0.238764899249E+04   -0.86503E-03   -0.32812E-01  4672   0.319E-01    0.248E-01
RMM:   2    -0.238764848281E+04    0.50968E-03   -0.36314E-03  3750   0.347E-02    0.141E-01
RMM:   3    -0.238764836829E+04    0.11452E-03   -0.22613E-03  3712   0.209E-02    0.360E-02
RMM:   4    -0.238764834902E+04    0.19265E-04   -0.18503E-04  3364   0.798E-03    0.259E-02
RMM:   5    -0.238764834844E+04    0.58455E-06   -0.26611E-04  3582   0.655E-03    0.226E-02
RMM:   6    -0.238764833166E+04    0.16776E-04   -0.58622E-05  3455   0.375E-03    0.442E-03
RMM:   7    -0.238764833432E+04   -0.26553E-05   -0.16352E-05  3402   0.287E-03    0.374E-03
RMM:   8    -0.238764833200E+04    0.23193E-05   -0.56826E-06  3201   0.224E-03    0.255E-03
RMM:   9    -0.238764833172E+04    0.28030E-06   -0.11590E-06  2256   0.820E-04
   7 F= -.24195243E+04 E0= -.24195243E+04  d E =-.600129E-12  mag=     0.0000
       N       E                     dE             d eps       ncg     rms          rms(c)
DAV:   1    -0.238764917323E+04   -0.84122E-03   -0.16646E-01  4560   0.233E-01    0.179E-01
RMM:   2    -0.238764878650E+04    0.38672E-03   -0.20631E-03  3730   0.275E-02    0.981E-02
RMM:   3    -0.238764871355E+04    0.72959E-04   -0.14904E-03  3654   0.161E-02    0.273E-02
RMM:   4    -0.238764870656E+04    0.69844E-05   -0.14209E-04  3223   0.671E-03    0.226E-02
RMM:   5    -0.238764870337E+04    0.31884E-05   -0.16410E-04  3497   0.502E-03    0.176E-02
RMM:   6    -0.238764869329E+04    0.10086E-04   -0.20018E-05  2867   0.216E-03    0.639E-03
RMM:   7    -0.238764869330E+04   -0.13504E-07   -0.13265E-05  2881   0.173E-03    0.205E-03
RMM:   8    -0.238764869309E+04    0.20629E-06   -0.17722E-06  2624   0.130E-03
   8 F= -.24195247E+04 E0= -.24195247E+04  d E =-.263415E-11  mag=     0.0000
       N       E                     dE             d eps       ncg     rms          rms(c)
DAV:   1    -0.238764903496E+04   -0.34166E-03   -0.32431E-01  4600   0.298E-01    0.234E-01
RMM:   2    -0.238764862080E+04    0.41416E-03   -0.32083E-03  3750   0.318E-02    0.132E-01
RMM:   3    -0.238764854655E+04    0.74247E-04   -0.19558E-03  3740   0.195E-02    0.338E-02
RMM:   4    -0.238764852599E+04    0.20566E-04   -0.14288E-04  3485   0.746E-03    0.231E-02
RMM:   5    -0.238764852638E+04   -0.38842E-06   -0.19618E-04  3602   0.621E-03    0.175E-02
RMM:   6    -0.238764851478E+04    0.11594E-04   -0.33942E-05  3472   0.405E-03    0.555E-03
RMM:   7    -0.238764851979E+04   -0.50108E-05   -0.23394E-05  3536   0.374E-03    0.358E-03
RMM:   8    -0.238764851487E+04    0.49215E-05   -0.97830E-06  3391   0.307E-03    0.316E-03
RMM:   9    -0.238764851426E+04    0.60754E-06   -0.12880E-06  2286   0.817E-04
   9 F= -.24195245E+04 E0= -.24195245E+04  d E =-.224633E-11  mag=     0.0000
       N       E                     dE             d eps       ncg     rms          rms(c)
DAV:   1    -0.238764972289E+04   -0.12080E-02   -0.15766E-01  4264   0.204E-01    0.123E-01
RMM:   2    -0.238764973475E+04   -0.11863E-04   -0.88892E-04  3636   0.164E-02    0.731E-02
RMM:   3    -0.238764974045E+04   -0.56971E-05   -0.32642E-04  3580   0.861E-03    0.102E-02
RMM:   4    -0.238764974166E+04   -0.12087E-05   -0.42499E-05  3258   0.340E-03    0.688E-03
RMM:   5    -0.238764974229E+04   -0.62754E-06   -0.21133E-05  3295   0.245E-03    0.505E-03
RMM:   6    -0.238764974114E+04    0.11422E-05   -0.38571E-06  2830   0.155E-03    0.180E-03
RMM:   7    -0.238764974170E+04   -0.56098E-06   -0.24120E-06  2716   0.130E-03
  10 F= -.24195257E+04 E0= -.24195257E+04  d E =-.370532E-11  mag=     0.0000
       N       E                     dE             d eps       ncg     rms          rms(c)
DAV:   1    -0.238764932213E+04    0.41901E-03   -0.31734E-01  4312   0.288E-01    0.179E-01
RMM:   2    -0.238764933674E+04   -0.14612E-04   -0.21532E-03  3728   0.250E-02    0.107E-01
RMM:   3    -0.238764933714E+04   -0.39829E-06   -0.84352E-04  3678   0.137E-02    0.184E-02
RMM:   4    -0.238764933466E+04    0.24799E-05   -0.88550E-05  3484   0.553E-03    0.126E-02
RMM:   5    -0.238764933716E+04   -0.25026E-05   -0.70384E-05  3514   0.440E-03    0.922E-03
RMM:   6    -0.238764933242E+04    0.47457E-05   -0.14518E-05  3377   0.317E-03    0.305E-03
RMM:   7    -0.238764933581E+04   -0.33919E-05   -0.11817E-05  3406   0.290E-03    0.270E-03
RMM:   8    -0.238764933252E+04    0.32849E-05   -0.57145E-06  3234   0.242E-03    0.196E-03
RMM:   9    -0.238764933228E+04    0.24194E-06   -0.73935E-07  2112   0.598E-04
  11 F= -.24195254E+04 E0= -.24195254E+04  d E =-.511250E-11  mag=     0.0000
       N       E                     dE             d eps       ncg     rms          rms(c)
DAV:   1    -0.238764884371E+04    0.48882E-03   -0.16516E-01  4512   0.211E-01    0.172E-01
RMM:   2    -0.238764861815E+04    0.22556E-03   -0.18853E-03  3698   0.237E-02    0.992E-02
RMM:   3    -0.238764856466E+04    0.53487E-04   -0.11179E-03  3648   0.147E-02    0.268E-02
RMM:   4    -0.238764855035E+04    0.14312E-04   -0.75509E-05  3221   0.534E-03    0.178E-02
RMM:   5    -0.238764854862E+04    0.17289E-05   -0.10781E-04  3490   0.417E-03    0.127E-02
RMM:   6    -0.238764854348E+04    0.51388E-05   -0.14671E-05  3154   0.222E-03    0.376E-03
RMM:   7    -0.238764854504E+04   -0.15536E-05   -0.98929E-06  3231   0.217E-03    0.333E-03
RMM:   8    -0.238764854370E+04    0.13393E-05   -0.29179E-06  2931   0.187E-03    0.219E-03
RMM:   9    -0.238764854352E+04    0.18009E-06   -0.78544E-07  2225   0.728E-04
  12 F= -.24195245E+04 E0= -.24195245E+04  d E =-.571415E-11  mag=     0.0000
       N       E                     dE             d eps       ncg     rms          rms(c)
DAV:   1    -0.238764897120E+04   -0.42750E-03   -0.32342E-01  4544   0.297E-01    0.237E-01
RMM:   2    -0.238764853796E+04    0.43324E-03   -0.34379E-03  3736   0.328E-02    0.136E-01
RMM:   3    -0.238764845019E+04    0.87778E-04   -0.21330E-03  3719   0.198E-02    0.378E-02
RMM:   4    -0.238764842074E+04    0.29446E-04   -0.13384E-04  3310   0.706E-03    0.253E-02
RMM:   5    -0.238764841901E+04    0.17336E-05   -0.23448E-04  3545   0.576E-03    0.187E-02
RMM:   6    -0.238764840792E+04    0.11083E-04   -0.30131E-05  2932   0.238E-03    0.537E-03
RMM:   7    -0.238764840862E+04   -0.70132E-06   -0.14280E-05  2946   0.182E-03    0.364E-03
RMM:   8    -0.238764840813E+04    0.48996E-06   -0.16242E-06  2551   0.118E-03
  13 F= -.24195245E+04 E0= -.24195245E+04  d E =-.769930E-11  mag=     0.0000
       N       E                     dE             d eps       ncg     rms          rms(c)
DAV:   1    -0.238764798222E+04    0.42640E-03   -0.16942E-01  4608   0.242E-01    0.197E-01
RMM:   2    -0.238764748797E+04    0.49425E-03   -0.25837E-03  3716   0.310E-02    0.109E-01
RMM:   3    -0.238764742781E+04    0.60155E-04   -0.22172E-03  3762   0.186E-02    0.410E-02
RMM:   4    -0.238764739359E+04    0.34220E-04   -0.11101E-04  3355   0.687E-03    0.302E-02
RMM:   5    -0.238764739825E+04   -0.46589E-05   -0.41802E-04  3666   0.747E-03    0.270E-02
RMM:   6    -0.238764737332E+04    0.24928E-04   -0.71933E-05  3530   0.455E-03    0.644E-03
RMM:   7    -0.238764737599E+04   -0.26691E-05   -0.22230E-05  3509   0.348E-03    0.233E-03
RMM:   8    -0.238764737293E+04    0.30631E-05   -0.59569E-06  3288   0.246E-03    0.240E-03
RMM:   9    -0.238764737273E+04    0.20192E-06   -0.78445E-07  2057   0.645E-04
  14 F= -.24195233E+04 E0= -.24195233E+04  d E =-.826129E-11  mag=    -0.0000
       N       E                     dE             d eps       ncg     rms          rms(c)
DAV:   1    -0.238764839271E+04   -0.10198E-02   -0.33831E-01  4664   0.324E-01    0.283E-01
RMM:   2    -0.238764756705E+04    0.82566E-03   -0.50748E-03  3778   0.410E-02    0.160E-01
RMM:   3    -0.238764740375E+04    0.16329E-03   -0.36181E-03  3800   0.253E-02    0.521E-02
RMM:   4    -0.238764734528E+04    0.58474E-04   -0.18330E-04  3356   0.851E-03    0.352E-02
RMM:   5    -0.238764734274E+04    0.25405E-05   -0.46519E-04  3610   0.772E-03    0.256E-02
RMM:   6    -0.238764732179E+04    0.20952E-04   -0.57923E-05  3146   0.317E-03    0.677E-03
RMM:   7    -0.238764732272E+04   -0.92963E-06   -0.22087E-05  3187   0.233E-03    0.345E-03
RMM:   8    -0.238764732207E+04    0.64733E-06   -0.24929E-06  2779   0.139E-03
  15 F= -.24195234E+04 E0= -.24195234E+04  d E =-.728233E-11  mag=     0.0000
       N       E                     dE             d eps       ncg     rms          rms(c)
DAV:   1    -0.238765018362E+04   -0.28609E-02   -0.16474E-01  4464   0.222E-01    0.155E-01
RMM:   2    -0.238765003194E+04    0.15168E-03   -0.15311E-03  3692   0.221E-02    0.898E-02
RMM:   3    -0.238765000912E+04    0.22817E-04   -0.95184E-04  3698   0.134E-02    0.251E-02
RMM:   4    -0.238764999417E+04    0.14949E-04   -0.55046E-05  3404   0.483E-03    0.163E-02
RMM:   5    -0.238764999485E+04   -0.67879E-06   -0.96922E-05  3516   0.425E-03    0.108E-02
RMM:   6    -0.238764998980E+04    0.50535E-05   -0.15731E-05  3398   0.295E-03    0.327E-03
RMM:   7    -0.238764999086E+04   -0.10615E-05   -0.88882E-06  3277   0.219E-03    0.217E-03
RMM:   8    -0.238764998923E+04    0.16256E-05   -0.21971E-06  2745   0.134E-03    0.166E-03
RMM:   9    -0.238764998915E+04    0.77795E-07   -0.34266E-07  1842   0.358E-04
  16 F= -.24195259E+04 E0= -.24195259E+04  d E =-.876320E-11  mag=    -0.0000
       N       E                     dE             d eps       ncg     rms          rms(c)
DAV:   1    -0.238764950099E+04    0.48824E-03   -0.31725E-01  4240   0.308E-01    0.165E-01
RMM:   2    -0.238764959292E+04   -0.91929E-04   -0.17931E-03  3762   0.238E-02    0.992E-02
RMM:   3    -0.238764961034E+04   -0.17412E-04   -0.52219E-04  3706   0.118E-02    0.826E-03
RMM:   4    -0.238764961647E+04   -0.61325E-05   -0.79992E-05  3491   0.458E-03    0.577E-03
RMM:   5    -0.238764961737E+04   -0.89913E-06   -0.17448E-05  3223   0.220E-03    0.252E-03
RMM:   6    -0.238764961745E+04   -0.83004E-07   -0.25032E-06  2580   0.105E-03
  17 F= -.24195257E+04 E0= -.24195257E+04  d E =-.776806E-11  mag=     0.0000
       N       E                     dE             d eps       ncg     rms          rms(c)
DAV:   1    -0.238764921034E+04    0.40703E-03   -0.16174E-01  4336   0.220E-01    0.126E-01
RMM:   2    -0.238764921921E+04   -0.88704E-05   -0.10358E-03  3654   0.185E-02    0.752E-02
RMM:   3    -0.238764922485E+04   -0.56379E-05   -0.41468E-04  3622   0.987E-03    0.123E-02
RMM:   4    -0.238764922274E+04    0.21075E-05   -0.36808E-05  3442   0.397E-03    0.770E-03
RMM:   5    -0.238764922418E+04   -0.14376E-05   -0.24293E-05  3415   0.308E-03    0.396E-03
RMM:   6    -0.238764922244E+04    0.17442E-05   -0.72773E-06  3308   0.253E-03    0.177E-03
RMM:   7    -0.238764922227E+04    0.16345E-06   -0.30743E-06  2862   0.139E-03
  18 F= -.24195252E+04 E0= -.24195252E+04  d E =-.786932E-11  mag=     0.0000
       N       E                     dE             d eps       ncg     rms          rms(c)
DAV:   1    -0.238764958231E+04   -0.35988E-03   -0.32172E-01  4432   0.314E-01    0.199E-01
RMM:   2    -0.238764944692E+04    0.13540E-03   -0.24389E-03  3716   0.289E-02    0.116E-01
RMM:   3    -0.238764942947E+04    0.17445E-04   -0.12893E-03  3712   0.158E-02    0.281E-02
RMM:   4    -0.238764941342E+04    0.16053E-04   -0.77810E-05  3314   0.533E-03    0.183E-02
RMM:   5    -0.238764941265E+04    0.76983E-06   -0.12266E-04  3474   0.423E-03    0.124E-02
RMM:   6    -0.238764940815E+04    0.45022E-05   -0.11451E-05  2703   0.166E-03    0.474E-03
RMM:   7    -0.238764940838E+04   -0.23554E-06   -0.91522E-06  2719   0.140E-03
  19 F= -.24195254E+04 E0= -.24195254E+04  d E =-.101950E-10  mag=     0.0000
       N       E                     dE             d eps       ncg     rms          rms(c)
DAV:   1    -0.238764940867E+04   -0.52206E-06   -0.15741E-01  4384   0.247E-01    0.138E-01
RMM:   2    -0.238764936456E+04    0.44106E-04   -0.13129E-03  3666   0.224E-02    0.808E-02
RMM:   3    -0.238764935684E+04    0.77249E-05   -0.54040E-04  3646   0.113E-02    0.176E-02
RMM:   4    -0.238764935149E+04    0.53424E-05   -0.45183E-05  3343   0.411E-03    0.949E-03
RMM:   5    -0.238764935108E+04    0.41991E-06   -0.19307E-05  3194   0.233E-03    0.318E-03
RMM:   6    -0.238764935127E+04   -0.19750E-06   -0.39624E-06  2969   0.168E-03
  20 F= -.24195254E+04 E0= -.24195254E+04  d E =-.875195E-11  mag=    -0.0000
       N       E                     dE             d eps       ncg     rms          rms(c)
DAV:   1    -0.238764984350E+04   -0.49243E-03   -0.31022E-01  4280   0.313E-01    0.197E-01
RMM:   2    -0.238764969659E+04    0.14691E-03   -0.21668E-03  3690   0.267E-02    0.114E-01
RMM:   3    -0.238764968231E+04    0.14282E-04   -0.74546E-04  3700   0.131E-02    0.249E-02
RMM:   4    -0.238764967606E+04    0.62510E-05   -0.83517E-05  3613   0.640E-03    0.746E-03
RMM:   5    -0.238764967654E+04   -0.48571E-06   -0.28372E-05  3536   0.451E-03    0.333E-03
RMM:   6    -0.238764968011E+04   -0.35641E-05   -0.22230E-05  3540   0.437E-03    0.194E-03
RMM:   7    -0.238764967364E+04    0.64686E-05   -0.92962E-06  3378   0.268E-03    0.745E-04
RMM:   8    -0.238764967366E+04   -0.21566E-07   -0.12454E-06  2242   0.708E-04
  21 F= -.24195257E+04 E0= -.24195257E+04  d E =-.955433E-11  mag=    -0.0000
       N       E                     dE             d eps       ncg     rms          rms(c)
DAV:   1    -0.238764771108E+04    0.19626E-02   -0.15922E-01  4256   0.220E-01    0.138E-01
RMM:   2    -0.238764765224E+04    0.58832E-04   -0.10786E-03  3608   0.187E-02    0.802E-02
RMM:   3    -0.238764764964E+04    0.26004E-05   -0.36799E-04  3551   0.891E-03    0.168E-02
RMM:   4    -0.238764764624E+04    0.34071E-05   -0.33848E-05  3214   0.332E-03    0.477E-03
RMM:   5    -0.238764764703E+04   -0.79439E-06   -0.88169E-06  2915   0.179E-03
  22 F= -.24195237E+04 E0= -.24195237E+04  d E =-.107108E-10  mag=    -0.0000
       N       E                     dE             d eps       ncg     rms          rms(c)
DAV:   1    -0.238764849548E+04   -0.84925E-03   -0.32878E-01  4536   0.323E-01    0.276E-01
RMM:   2    -0.238764763567E+04    0.85981E-03   -0.49574E-03  3738   0.411E-02    0.151E-01
RMM:   3    -0.238764751393E+04    0.12173E-03   -0.18235E-03  3730   0.190E-02    0.507E-02
RMM:   4    -0.238764748077E+04    0.33166E-04   -0.18513E-04  3604   0.775E-03    0.166E-02
RMM:   5    -0.238764748081E+04   -0.38184E-07   -0.31948E-05  3510   0.452E-03    0.496E-03
RMM:   6    -0.238764748519E+04   -0.43869E-05   -0.19503E-05  3522   0.423E-03    0.250E-03
RMM:   7    -0.238764748031E+04    0.48800E-05   -0.11563E-05  3444   0.332E-03    0.128E-03
RMM:   8    -0.238764747949E+04    0.82079E-06   -0.20191E-06  2513   0.107E-03
  23 F= -.24195235E+04 E0= -.24195235E+04  d E =-.840512E-11  mag=    -0.0000
       N       E                     dE             d eps       ncg     rms          rms(c)
DAV:   1    -0.238764936678E+04   -0.18865E-02   -0.15722E-01  4048   0.221E-01    0.130E-01
RMM:   2    -0.238764933556E+04    0.31223E-04   -0.10320E-03  3574   0.184E-02    0.755E-02
RMM:   3    -0.238764933930E+04   -0.37412E-05   -0.34396E-04  3533   0.862E-03    0.155E-02
RMM:   4    -0.238764933730E+04    0.19973E-05   -0.37329E-05  3229   0.324E-03    0.466E-03
RMM:   5    -0.238764933792E+04   -0.61427E-06   -0.68152E-06  2777   0.161E-03
  24 F= -.24195255E+04 E0= -.24195255E+04  d E =-.933225E-11  mag=     0.0000
       N       E                     dE             d eps       ncg     rms          rms(c)
DAV:   1    -0.238764970547E+04   -0.36816E-03   -0.31238E-01  4368   0.314E-01    0.198E-01
RMM:   2    -0.238764955334E+04    0.15213E-03   -0.22783E-03  3678   0.272E-02    0.114E-01
RMM:   3    -0.238764953690E+04    0.16435E-04   -0.77118E-04  3672   0.130E-02    0.263E-02
RMM:   4    -0.238764952888E+04    0.80214E-05   -0.76249E-05  3511   0.568E-03    0.776E-03
RMM:   5    -0.238764953016E+04   -0.12798E-05   -0.20150E-05  3476   0.364E-03    0.343E-03
RMM:   6    -0.238764953343E+04   -0.32699E-05   -0.11307E-05  3452   0.381E-03    0.165E-03
RMM:   7    -0.238764952930E+04    0.41328E-05   -0.65226E-06  3347   0.282E-03    0.776E-04
RMM:   8    -0.238764952900E+04    0.29418E-06   -0.93726E-07  2219   0.726E-04
  25 F= -.24195254E+04 E0= -.24195254E+04  d E =-.996171E-11  mag=    -0.0000
       N       E                     dE             d eps       ncg     rms          rms(c)
DAV:   1    -0.238764839883E+04    0.11305E-02   -0.15831E-01  4448   0.233E-01    0.152E-01
RMM:   2    -0.238764831200E+04    0.86827E-04   -0.16428E-03  3740   0.241E-02    0.891E-02
RMM:   3    -0.238764827273E+04    0.39274E-04   -0.50213E-04  3640   0.108E-02    0.182E-02
RMM:   4    -0.238764826901E+04    0.37137E-05   -0.40733E-05  3285   0.383E-03    0.762E-03
RMM:   5    -0.238764827004E+04   -0.10294E-05   -0.14437E-05  3060   0.202E-03    0.280E-03
RMM:   6    -0.238764827016E+04   -0.12098E-06   -0.23456E-06  2579   0.114E-03
  26 F= -.24195244E+04 E0= -.24195244E+04  d E =-.960891E-11  mag=     0.0000
       N       E                     dE             d eps       ncg     rms          rms(c)
DAV:   1    -0.238764919005E+04   -0.92001E-03   -0.32390E-01  4576   0.321E-01    0.245E-01
RMM:   2    -0.238764870219E+04    0.48785E-03   -0.37943E-03  3900   0.358E-02    0.138E-01
RMM:   3    -0.238764861337E+04    0.88821E-04   -0.13734E-03  3812   0.167E-02    0.405E-02
RMM:   4    -0.238764858886E+04    0.24514E-04   -0.12727E-04  3554   0.604E-03    0.134E-02
RMM:   5    -0.238764859056E+04   -0.17055E-05   -0.19282E-05  3429   0.315E-03    0.419E-03
RMM:   6    -0.238764859176E+04   -0.11944E-05   -0.79049E-06  3336   0.263E-03    0.169E-03
RMM:   7    -0.238764859095E+04    0.81261E-06   -0.54860E-06  3219   0.246E-03
  27 F= -.24195245E+04 E0= -.24195245E+04  d E =-.989035E-11  mag=     0.0000
       N       E                     dE             d eps       ncg     rms          rms(c)
DAV:   1    -0.238764995088E+04   -0.13591E-02   -0.16289E-01  4448   0.221E-01    0.151E-01
RMM:   2    -0.238764982878E+04    0.12210E-03   -0.13929E-03  3770   0.219E-02    0.871E-02
RMM:   3    -0.238764980842E+04    0.20359E-04   -0.49161E-04  3682   0.102E-02    0.220E-02
RMM:   4    -0.238764980141E+04    0.70124E-05   -0.42340E-05  3336   0.363E-03    0.691E-03
RMM:   5    -0.238764980257E+04   -0.11603E-05   -0.10335E-05  3078   0.195E-03    0.254E-03
RMM:   6    -0.238764980294E+04   -0.37203E-06   -0.27885E-06  2833   0.148E-03
  28 F= -.24195259E+04 E0= -.24195259E+04  d E =-.992217E-11  mag=    -0.0000
       N       E                     dE             d eps       ncg     rms          rms(c)
DAV:   1    -0.238764958718E+04    0.21539E-03   -0.31942E-01  4312   0.306E-01    0.167E-01
RMM:   2    -0.238764964363E+04   -0.56452E-04   -0.16147E-03  3768   0.235E-02    0.100E-01
RMM:   3    -0.238764967233E+04   -0.28698E-04   -0.49298E-04  3752   0.118E-02    0.913E-03
RMM:   4    -0.238764967416E+04   -0.18299E-05   -0.58556E-05  3595   0.575E-03    0.465E-03
RMM:   5    -0.238764967610E+04   -0.19387E-05   -0.24469E-05  3528   0.437E-03    0.235E-03
RMM:   6    -0.238764967738E+04   -0.12859E-05   -0.19639E-05  3528   0.430E-03    0.150E-03
RMM:   7    -0.238764967277E+04    0.46088E-05   -0.68164E-06  3227   0.234E-03    0.558E-04
RMM:   8    -0.238764967279E+04   -0.13126E-07   -0.95007E-07  2171   0.656E-04
  29 F= -.24195256E+04 E0= -.24195256E+04  d E =-.100053E-10  mag=     0.0000
       N       E                     dE             d eps       ncg     rms          rms(c)
DAV:   1    -0.238764826216E+04    0.14106E-02   -0.16082E-01  4520   0.221E-01    0.150E-01
RMM:   2    -0.238764813251E+04    0.12966E-03   -0.13929E-03  3780   0.220E-02    0.859E-02
RMM:   3    -0.238764811230E+04    0.20210E-04   -0.49485E-04  3670   0.101E-02    0.232E-02
RMM:   4    -0.238764810473E+04    0.75682E-05   -0.46482E-05  3366   0.364E-03    0.711E-03
RMM:   5    -0.238764810574E+04   -0.10097E-05   -0.89705E-06  3084   0.191E-03    0.248E-03
RMM:   6    -0.238764810618E+04   -0.43900E-06   -0.25507E-06  2826   0.154E-03
  30 F= -.24195243E+04 E0= -.24195243E+04  d E =-.982697E-11  mag=    -0.0000
       N       E                     dE             d eps       ncg     rms          rms(c)
DAV:   1    -0.238764909681E+04   -0.99107E-03   -0.32246E-01  4576   0.324E-01    0.252E-01
RMM:   2    -0.238764850639E+04    0.59042E-03   -0.38823E-03  3922   0.365E-02    0.141E-01
RMM:   3    -0.238764840693E+04    0.99465E-04   -0.14642E-03  3826   0.172E-02    0.439E-02
RMM:   4    -0.238764837827E+04    0.28659E-04   -0.14301E-04  3605   0.705E-03    0.142E-02
RMM:   5    -0.238764837921E+04   -0.93601E-06   -0.25933E-05  3518   0.439E-03    0.428E-03
RMM:   6    -0.238764838432E+04   -0.51172E-05   -0.19637E-05  3545   0.462E-03    0.199E-03
RMM:   7    -0.238764837883E+04    0.54969E-05   -0.14714E-05  3485   0.395E-03    0.104E-03
RMM:   8    -0.238764837740E+04    0.14243E-05   -0.23510E-06  2642   0.123E-03    0.686E-04
RMM:   9    -0.238764837746E+04   -0.51426E-07   -0.41695E-07  2086   0.505E-04
  31 F= -.24195242E+04 E0= -.24195242E+04  d E =-.104543E-10  mag=    -0.0000
       N       E                     dE             d eps       ncg     rms          rms(c)
DAV:   1    -0.238764771029E+04    0.66711E-03   -0.16163E-01  4608   0.256E-01    0.184E-01
RMM:   2    -0.238764743908E+04    0.27122E-03   -0.25936E-03  3804   0.318E-02    0.106E-01
RMM:   3    -0.238764736100E+04    0.78078E-04   -0.11085E-03  3718   0.157E-02    0.311E-02
RMM:   4    -0.238764734415E+04    0.16848E-04   -0.72210E-05  3395   0.528E-03    0.156E-02
RMM:   5    -0.238764734340E+04    0.75277E-06   -0.37052E-05  3357   0.294E-03    0.496E-03
RMM:   6    -0.238764734307E+04    0.33245E-06   -0.47167E-06  2728   0.136E-03
  32 F= -.24195236E+04 E0= -.24195236E+04  d E =-.119351E-10  mag=    -0.0000
       N       E                     dE             d eps       ncg     rms          rms(c)
DAV:   1    -0.238764869114E+04   -0.13477E-02   -0.32999E-01  4544   0.326E-01    0.280E-01
RMM:   2    -0.238764790085E+04    0.79029E-03   -0.51181E-03  3800   0.411E-02    0.157E-01
RMM:   3    -0.238764773917E+04    0.16168E-03   -0.31428E-03  3788   0.246E-02    0.480E-02
RMM:   4    -0.238764768888E+04    0.50286E-04   -0.16868E-04  3484   0.847E-03    0.305E-02
RMM:   5    -0.238764768541E+04    0.34696E-05   -0.29627E-04  3604   0.703E-03    0.193E-02
RMM:   6    -0.238764767317E+04    0.12241E-04   -0.36615E-05  3440   0.398E-03    0.562E-03
RMM:   7    -0.238764767665E+04   -0.34827E-05   -0.20678E-05  3505   0.367E-03    0.346E-03
RMM:   8    -0.238764767292E+04    0.37343E-05   -0.58179E-06  3324   0.278E-03    0.270E-03
RMM:   9    -0.238764767255E+04    0.36808E-06   -0.97380E-07  2192   0.714E-04
  33 F= -.24195235E+04 E0= -.24195235E+04  d E =-.871755E-11  mag=    -0.0000
       N       E                     dE             d eps       ncg     rms          rms(c)
DAV:   1    -0.238765032533E+04   -0.26524E-02   -0.16404E-01  4384   0.225E-01    0.185E-01
RMM:   2    -0.238765001183E+04    0.31350E-03   -0.22433E-03  3688   0.274E-02    0.105E-01
RMM:   3    -0.238764995078E+04    0.61047E-04   -0.13347E-03  3676   0.161E-02    0.320E-02
RMM:   4    -0.238764992920E+04    0.21587E-04   -0.72912E-05  3252   0.543E-03    0.199E-02
RMM:   5    -0.238764992762E+04    0.15802E-05   -0.11688E-04  3422   0.422E-03    0.117E-02
RMM:   6    -0.238764992323E+04    0.43868E-05   -0.12468E-05  2780   0.176E-03    0.327E-03
RMM:   7    -0.238764992375E+04   -0.51816E-06   -0.55138E-06  2764   0.141E-03
  34 F= -.24195258E+04 E0= -.24195258E+04  d E =-.876336E-11  mag=    -0.0000
       N       E                     dE             d eps       ncg     rms          rms(c)
DAV:   1    -0.238764946621E+04    0.45702E-03   -0.31440E-01  4192   0.307E-01    0.170E-01
RMM:   2    -0.238764952094E+04   -0.54736E-04   -0.19042E-03  3672   0.247E-02    0.102E-01
RMM:   3    -0.238764953937E+04   -0.18424E-04   -0.68050E-04  3694   0.129E-02    0.155E-02
RMM:   4    -0.238764953662E+04    0.27479E-05   -0.55989E-05  3404   0.478E-03    0.959E-03
RMM:   5    -0.238764953721E+04   -0.59389E-06   -0.38605E-05  3414   0.325E-03    0.541E-03
RMM:   6    -0.238764953612E+04    0.10875E-05   -0.65873E-06  3180   0.206E-03    0.223E-03
RMM:   7    -0.238764953709E+04   -0.96671E-06   -0.45791E-06  3097   0.177E-03
  35 F= -.24195256E+04 E0= -.24195256E+04  d E =-.123621E-10  mag=    -0.0000
       N       E                     dE             d eps       ncg     rms          rms(c)
DAV:   1    -0.238764933712E+04    0.19900E-03   -0.15699E-01  4176   0.216E-01    0.118E-01
RMM:   2    -0.238764937953E+04   -0.42409E-04   -0.85855E-04  3602   0.167E-02    0.703E-02
RMM:   3    -0.238764938992E+04   -0.10385E-04   -0.25795E-04  3600   0.814E-03    0.701E-03
RMM:   4    -0.238764939131E+04   -0.13900E-05   -0.25632E-05  3314   0.312E-03    0.424E-03
RMM:   5    -0.238764939207E+04   -0.76112E-06   -0.99229E-06  3202   0.215E-03
  36 F= -.24195254E+04 E0= -.24195254E+04  d E =-.982294E-11  mag=    -0.0000
       N       E                     dE             d eps       ncg     rms          rms(c)
DAV:   1    -0.238764948444E+04   -0.93127E-04   -0.31514E-01  4256   0.309E-01    0.191E-01
RMM:   2    -0.238764939621E+04    0.88229E-04   -0.22977E-03  3754   0.278E-02    0.111E-01
RMM:   3    -0.238764939005E+04    0.61581E-05   -0.10651E-03  3768   0.152E-02    0.252E-02
RMM:   4    -0.238764937790E+04    0.12152E-04   -0.70422E-05  3470   0.558E-03    0.154E-02
RMM:   5    -0.238764937884E+04   -0.94218E-06   -0.79668E-05  3534   0.453E-03    0.908E-03
RMM:   6    -0.238764937494E+04    0.39013E-05   -0.12889E-05  3402   0.307E-03    0.373E-03
RMM:   7    -0.238764937678E+04   -0.18454E-05   -0.93979E-06  3365   0.251E-03    0.179E-03
RMM:   8    -0.238764937459E+04    0.21932E-05   -0.36182E-06  3071   0.183E-03    0.160E-03
RMM:   9    -0.238764937448E+04    0.10961E-06   -0.48809E-07  1964   0.489E-04
  37 F= -.24195254E+04 E0= -.24195254E+04  d E =-.112199E-10  mag=     0.0000
       N       E                     dE             d eps       ncg     rms          rms(c)
DAV:   1    -0.238764896517E+04    0.40942E-03   -0.16206E-01  4328   0.244E-01    0.158E-01
RMM:   2    -0.238764875681E+04    0.20836E-03   -0.15181E-03  3648   0.240E-02    0.886E-02
RMM:   3    -0.238764873049E+04    0.26319E-04   -0.10450E-03  3648   0.135E-02    0.276E-02
RMM:   4    -0.238764871569E+04    0.14795E-04   -0.54376E-05  3184   0.473E-03    0.197E-02
RMM:   5    -0.238764871361E+04    0.20844E-05   -0.14544E-04  3500   0.448E-03    0.146E-02
RMM:   6    -0.238764870705E+04    0.65598E-05   -0.15225E-05  2770   0.183E-03    0.494E-03
RMM:   7    -0.238764870722E+04   -0.16572E-06   -0.90687E-06  2779   0.152E-03
  38 F= -.24195246E+04 E0= -.24195246E+04  d E =-.108753E-10  mag=     0.0000
       N       E                     dE             d eps       ncg     rms          rms(c)
DAV:   1    -0.238764911741E+04   -0.41036E-03   -0.32106E-01  4496   0.315E-01    0.231E-01
RMM:   2    -0.238764868312E+04    0.43430E-03   -0.29756E-03  3691   0.323E-02    0.132E-01
RMM:   3    -0.238764861853E+04    0.64581E-04   -0.19788E-03  3731   0.194E-02    0.397E-02
RMM:   4    -0.238764858485E+04    0.33680E-04   -0.11071E-04  3388   0.665E-03    0.256E-02
RMM:   5    -0.238764858307E+04    0.17855E-05   -0.21770E-04  3551   0.581E-03    0.165E-02
RMM:   6    -0.238764857416E+04    0.89130E-05   -0.23810E-05  3326   0.283E-03    0.515E-03
RMM:   7    -0.238764857637E+04   -0.22172E-05   -0.14506E-05  3394   0.266E-03    0.255E-03
RMM:   8    -0.238764857440E+04    0.19716E-05   -0.38263E-06  3127   0.205E-03    0.212E-03
RMM:   9    -0.238764857426E+04    0.13734E-06   -0.74326E-07  2128   0.658E-04
  39 F= -.24195247E+04 E0= -.24195247E+04  d E =-.984407E-11  mag=    -0.0000
       N       E                     dE             d eps       ncg     rms          rms(c)
DAV:   1    -0.238764834748E+04    0.22693E-03   -0.15666E-01  4056   0.218E-01    0.113E-01
RMM:   2    -0.238764839185E+04   -0.44378E-04   -0.84861E-04  3518   0.168E-02    0.681E-02
RMM:   3    -0.238764840595E+04   -0.14099E-04   -0.25317E-04  3444   0.810E-03    0.623E-03
RMM:   4    -0.238764840828E+04   -0.23315E-05   -0.34047E-05  3102   0.314E-03    0.415E-03
RMM:   5    -0.238764840888E+04   -0.59823E-06   -0.96280E-06  2812   0.152E-03
  40 F= -.24195243E+04 E0= -.24195243E+04  d E =-.955294E-11  mag=    -0.0000
       N       E                     dE             d eps       ncg     rms          rms(c)
DAV:   1    -0.238764860377E+04   -0.19548E-03   -0.33231E-01  4368   0.322E-01    0.252E-01
RMM:   2    -0.238764805494E+04    0.54883E-03   -0.42229E-03  3714   0.383E-02    0.144E-01
RMM:   3    -0.238764796751E+04    0.87434E-04   -0.27816E-03  3768   0.231E-02    0.435E-02
RMM:   4    -0.238764792541E+04    0.42095E-04   -0.15437E-04  3394   0.799E-03    0.288E-02
RMM:   5    -0.238764792269E+04    0.27187E-05   -0.28222E-04  3558   0.658E-03    0.188E-02
RMM:   6    -0.238764791146E+04    0.11229E-04   -0.41880E-05  3436   0.368E-03    0.425E-03
RMM:   7    -0.238764791417E+04   -0.27072E-05   -0.17262E-05  3455   0.317E-03    0.381E-03
RMM:   8    -0.238764791139E+04    0.27822E-05   -0.52154E-06  3186   0.227E-03    0.244E-03
RMM:   9    -0.238764791110E+04    0.28353E-06   -0.10490E-06  2172   0.702E-04
  41 F= -.24195240E+04 E0= -.24195240E+04  d E =-.114169E-10  mag=     0.0000
       N       E                     dE             d eps       ncg     rms          rms(c)
DAV:   1    -0.238764970103E+04   -0.17896E-02   -0.15957E-01  4160   0.220E-01    0.136E-01
RMM:   2    -0.238764965048E+04    0.50556E-04   -0.11330E-03  3568   0.189E-02    0.800E-02
RMM:   3    -0.238764965043E+04    0.48633E-07   -0.55661E-04  3575   0.109E-02    0.174E-02
RMM:   4    -0.238764964449E+04    0.59388E-05   -0.37727E-05  3037   0.379E-03    0.107E-02
RMM:   5    -0.238764964448E+04    0.88185E-08   -0.38893E-05  3148   0.259E-03    0.609E-03
RMM:   6    -0.238764964336E+04    0.11151E-05   -0.43068E-06  2549   0.125E-03    0.210E-03
RMM:   7    -0.238764964378E+04   -0.41947E-06   -0.29497E-06  2626   0.117E-03
  42 F= -.24195257E+04 E0= -.24195257E+04  d E =-.929754E-11  mag=     0.0000
       N       E                     dE             d eps       ncg     rms          rms(c)
DAV:   1    -0.238764973924E+04   -0.95876E-04   -0.31556E-01  4184   0.312E-01    0.173E-01
RMM:   2    -0.238764977693E+04   -0.37685E-04   -0.19371E-03  3654   0.255E-02    0.103E-01
RMM:   3    -0.238764979017E+04   -0.13248E-04   -0.68916E-04  3660   0.128E-02    0.158E-02
RMM:   4    -0.238764978903E+04    0.11439E-05   -0.64477E-05  3458   0.476E-03    0.959E-03
RMM:   5    -0.238764979009E+04   -0.10590E-05   -0.39763E-05  3402   0.321E-03    0.586E-03
RMM:   6    -0.238764978891E+04    0.11782E-05   -0.63467E-06  3064   0.198E-03    0.260E-03
RMM:   7    -0.238764978978E+04   -0.86872E-06   -0.43572E-06  3020   0.172E-03
  43 F= -.24195257E+04 E0= -.24195257E+04  d E =-.119683E-10  mag=    -0.0000
       N       E                     dE             d eps       ncg     rms          rms(c)
DAV:   1    -0.238764971736E+04    0.71549E-04   -0.15781E-01  4272   0.232E-01    0.124E-01
RMM:   2    -0.238764975576E+04   -0.38402E-04   -0.83091E-04  3607   0.181E-02    0.751E-02
RMM:   3    -0.238764976060E+04   -0.48408E-05   -0.20337E-04  3539   0.789E-03    0.458E-03
RMM:   4    -0.238764976241E+04   -0.18105E-05   -0.27335E-05  3437   0.339E-03    0.309E-03
RMM:   5    -0.238764976389E+04   -0.14745E-05   -0.96428E-06  3327   0.265E-03    0.120E-03
RMM:   6    -0.238764976306E+04    0.83324E-06   -0.47319E-06  3186   0.224E-03
  44 F= -.24195258E+04 E0= -.24195258E+04  d E =-.125071E-10  mag=     0.0000
       N       E                     dE             d eps       ncg     rms          rms(c)
DAV:   1    -0.238764978856E+04   -0.24671E-04   -0.31312E-01  4240   0.314E-01    0.165E-01
RMM:   2    -0.238764986443E+04   -0.75870E-04   -0.16634E-03  3704   0.242E-02    0.988E-02
RMM:   3    -0.238764989224E+04   -0.27811E-04   -0.50219E-04  3712   0.118E-02    0.101E-02
RMM:   4    -0.238764989429E+04   -0.20475E-05   -0.50886E-05  3475   0.433E-03    0.617E-03
RMM:   5    -0.238764989534E+04   -0.10483E-05   -0.21177E-05  3361   0.274E-03    0.293E-03
RMM:   6    -0.238764989519E+04    0.14727E-06   -0.54163E-06  3154   0.197E-03
  45 F= -.24195259E+04 E0= -.24195259E+04  d E =-.878411E-11  mag=     0.0000
       N       E                     dE             d eps       ncg     rms          rms(c)
DAV:   1    -0.238764995384E+04   -0.58504E-04   -0.15730E-01  4208   0.223E-01    0.116E-01
RMM:   2    -0.238764999040E+04   -0.36563E-04   -0.81341E-04  3658   0.174E-02    0.697E-02
RMM:   3    -0.238765000821E+04   -0.17805E-04   -0.25257E-04  3666   0.917E-03    0.649E-03
RMM:   4    -0.238765000835E+04   -0.14663E-06   -0.40448E-05  3543   0.542E-03    0.411E-03
RMM:   5    -0.238765001355E+04   -0.51940E-05   -0.27009E-05  3565   0.492E-03    0.189E-03
RMM:   6    -0.238765000666E+04    0.68859E-05   -0.13777E-05  3458   0.349E-03    0.124E-03
RMM:   7    -0.238765000628E+04    0.38161E-06   -0.23641E-06  2511   0.100E-03
  46 F= -.24195259E+04 E0= -.24195259E+04  d E =-.858200E-11  mag=     0.0000
       N       E                     dE             d eps       ncg     rms          rms(c)
DAV:   1    -0.238764954331E+04    0.46336E-03   -0.31433E-01  4272   0.315E-01    0.163E-01
RMM:   2    -0.238764962040E+04   -0.77091E-04   -0.16273E-03  3716   0.238E-02    0.980E-02
RMM:   3    -0.238764964844E+04   -0.28040E-04   -0.48591E-04  3694   0.115E-02    0.765E-03
RMM:   4    -0.238764965231E+04   -0.38718E-05   -0.53328E-05  3422   0.423E-03    0.495E-03
RMM:   5    -0.238764965327E+04   -0.96436E-06   -0.15042E-05  3222   0.215E-03    0.182E-03
RMM:   6    -0.238764965352E+04   -0.24535E-06   -0.26750E-06  2616   0.113E-03
  47 F= -.24195257E+04 E0= -.24195257E+04  d E =-.129732E-10  mag=     0.0000
       N       E                     dE             d eps       ncg     rms          rms(c)
DAV:   1    -0.238764698444E+04    0.26688E-02   -0.16113E-01  4560   0.229E-01    0.166E-01
RMM:   2    -0.238764676350E+04    0.22094E-03   -0.17068E-03  3670   0.249E-02    0.952E-02
RMM:   3    -0.238764672280E+04    0.40697E-04   -0.10603E-03  3715   0.145E-02    0.268E-02
RMM:   4    -0.238764670688E+04    0.15924E-04   -0.58412E-05  3350   0.506E-03    0.175E-02
RMM:   5    -0.238764670683E+04    0.45897E-07   -0.10234E-04  3494   0.425E-03    0.111E-02
RMM:   6    -0.238764670224E+04    0.45855E-05   -0.13749E-05  3310   0.272E-03    0.330E-03
RMM:   7    -0.238764670433E+04   -0.20840E-05   -0.92699E-06  3364   0.258E-03    0.222E-03
RMM:   8    -0.238764670207E+04    0.22610E-05   -0.29409E-06  2995   0.184E-03    0.167E-03
RMM:   9    -0.238764670195E+04    0.11284E-06   -0.35696E-07  1920   0.415E-04
  48 F= -.24195229E+04 E0= -.24195229E+04  d E =-.106578E-10  mag=     0.0000
       N       E                     dE             d eps       ncg     rms          rms(c)
DAV:   1    -0.238764826438E+04   -0.15623E-02   -0.33930E-01  4592   0.339E-01    0.299E-01
RMM:   2    -0.238764728638E+04    0.97800E-03   -0.55528E-03  3840   0.453E-02    0.169E-01
RMM:   3    -0.238764707490E+04    0.21148E-03   -0.38359E-03  3832   0.269E-02    0.536E-02
RMM:   4    -0.238764700967E+04    0.65224E-04   -0.19546E-04  3413   0.896E-03    0.348E-02
RMM:   5    -0.238764700406E+04    0.56111E-05   -0.39293E-04  3590   0.748E-03    0.226E-02
RMM:   6    -0.238764698819E+04    0.15873E-04   -0.52420E-05  3166   0.308E-03    0.497E-03
RMM:   7    -0.238764698900E+04   -0.80824E-06   -0.14148E-05  3090   0.206E-03    0.305E-03
RMM:   8    -0.238764698860E+04    0.39334E-06   -0.17647E-06  2591   0.127E-03
  49 F= -.24195228E+04 E0= -.24195228E+04  d E =-.102495E-10  mag=     0.0000
       N       E                     dE             d eps       ncg     rms          rms(c)
DAV:   1    -0.238765000164E+04   -0.30126E-02   -0.16283E-01  4544   0.254E-01    0.177E-01
RMM:   2    -0.238764977759E+04    0.22406E-03   -0.25357E-03  3756   0.303E-02    0.102E-01
RMM:   3    -0.238764973201E+04    0.45582E-04   -0.13203E-03  3740   0.166E-02    0.300E-02
RMM:   4    -0.238764971309E+04    0.18911E-04   -0.80995E-05  3520   0.611E-03    0.186E-02
RMM:   5    -0.238764971218E+04    0.91843E-06   -0.84718E-05  3526   0.458E-03    0.882E-03
RMM:   6    -0.238764970950E+04    0.26794E-05   -0.16768E-05  3464   0.383E-03    0.244E-03
RMM:   7    -0.238764970954E+04   -0.45897E-07   -0.75827E-06  3364   0.285E-03
  50 F= -.24195256E+04 E0= -.24195256E+04  d E =-.100680E-10  mag=     0.0000
       N       E                     dE             d eps       ncg     rms          rms(c)
DAV:   1    -0.238764960644E+04    0.10305E-03   -0.31103E-01  4240   0.305E-01    0.192E-01
RMM:   2    -0.238764950344E+04    0.10300E-03   -0.23913E-03  3812   0.275E-02    0.110E-01
RMM:   3    -0.238764950424E+04   -0.79683E-06   -0.80908E-04  3708   0.130E-02    0.261E-02
RMM:   4    -0.238764949697E+04    0.72741E-05   -0.78382E-05  3496   0.472E-03    0.735E-03
RMM:   5    -0.238764949836E+04   -0.13941E-05   -0.13877E-05  3160   0.228E-03    0.295E-03
RMM:   6    -0.238764949883E+04   -0.47122E-06   -0.37933E-06  2938   0.173E-03
  51 F= -.24195256E+04 E0= -.24195256E+04  d E =-.110042E-10  mag=    -0.0000
       N       E                     dE             d eps       ncg     rms          rms(c)
DAV:   1    -0.238764763581E+04    0.18625E-02   -0.15578E-01  4432   0.215E-01    0.132E-01
RMM:   2    -0.238764760057E+04    0.35239E-04   -0.11711E-03  3680   0.195E-02    0.767E-02
RMM:   3    -0.238764759973E+04    0.83991E-06   -0.38405E-04  3648   0.941E-03    0.177E-02
RMM:   4    -0.238764759662E+04    0.31164E-05   -0.37328E-05  3508   0.473E-03    0.539E-03
RMM:   5    -0.238764759745E+04   -0.83266E-06   -0.14425E-05  3461   0.359E-03    0.217E-03
RMM:   6    -0.238764759885E+04   -0.14011E-05   -0.88589E-06  3438   0.355E-03    0.124E-03
RMM:   7    -0.238764759599E+04    0.28578E-05   -0.41257E-06  3145   0.228E-03    0.514E-04
RMM:   8    -0.238764759582E+04    0.17227E-06   -0.61541E-07  2073   0.561E-04
  52 F= -.24195237E+04 E0= -.24195237E+04  d E =-.925494E-11  mag=    -0.0000
       N       E                     dE             d eps       ncg     rms          rms(c)
DAV:   1    -0.238764836685E+04   -0.77086E-03   -0.32686E-01  4608   0.321E-01    0.270E-01
RMM:   2    -0.238764764950E+04    0.71735E-03   -0.56824E-03  3788   0.406E-02    0.150E-01
RMM:   3    -0.238764754772E+04    0.10179E-03   -0.21939E-03  3721   0.200E-02    0.525E-02
RMM:   4    -0.238764750627E+04    0.41445E-04   -0.18979E-04  3514   0.708E-03    0.187E-02
RMM:   5    -0.238764750767E+04   -0.13951E-05   -0.31522E-05  3399   0.341E-03    0.555E-03
RMM:   6    -0.238764750736E+04    0.30929E-06   -0.72092E-06  3082   0.190E-03
  53 F= -.24195235E+04 E0= -.24195235E+04  d E =-.118150E-10  mag=    -0.0000
       N       E                     dE             d eps       ncg     rms          rms(c)
DAV:   1    -0.238764940834E+04   -0.19007E-02   -0.15766E-01  4216   0.213E-01    0.136E-01
RMM:   2    -0.238764936702E+04    0.41321E-04   -0.11563E-03  3663   0.188E-02    0.783E-02
RMM:   3    -0.238764936957E+04   -0.25521E-05   -0.40474E-04  3650   0.942E-03    0.181E-02
RMM:   4    -0.238764936688E+04    0.26910E-05   -0.42967E-05  3530   0.499E-03    0.502E-03
RMM:   5    -0.238764936712E+04   -0.24281E-06   -0.15006E-05  3482   0.378E-03    0.215E-03
RMM:   6    -0.238764936856E+04   -0.14363E-05   -0.10433E-05  3454   0.358E-03    0.129E-03
RMM:   7    -0.238764936530E+04    0.32510E-05   -0.43304E-06  3152   0.213E-03    0.499E-04
RMM:   8    -0.238764936526E+04    0.42899E-07   -0.62171E-07  2083   0.551E-04
  54 F= -.24195253E+04 E0= -.24195253E+04  d E =-.113428E-10  mag=    -0.0000
       N       E                     dE             d eps       ncg     rms          rms(c)
DAV:   1    -0.238764944029E+04   -0.74988E-04   -0.31296E-01  4456   0.305E-01    0.198E-01
RMM:   2    -0.238764931944E+04    0.12085E-03   -0.26176E-03  3764   0.287E-02    0.115E-01
RMM:   3    -0.238764930720E+04    0.12242E-04   -0.89075E-04  3706   0.136E-02    0.283E-02
RMM:   4    -0.238764929560E+04    0.11595E-04   -0.76093E-05  3428   0.474E-03    0.899E-03
RMM:   5    -0.238764929761E+04   -0.20107E-05   -0.17647E-05  3206   0.239E-03    0.327E-03
RMM:   6    -0.238764929797E+04   -0.35350E-06   -0.37016E-06  2858   0.157E-03
  55 F= -.24195253E+04 E0= -.24195253E+04  d E =-.987824E-11  mag=    -0.0000
       N       E                     dE             d eps       ncg     rms          rms(c)
DAV:   1    -0.238764869298E+04    0.60463E-03   -0.15675E-01  4400   0.232E-01    0.154E-01
RMM:   2    -0.238764859765E+04    0.95331E-04   -0.17364E-03  3696   0.239E-02    0.892E-02
RMM:   3    -0.238764856538E+04    0.32272E-04   -0.53846E-04  3640   0.110E-02    0.194E-02
RMM:   4    -0.238764856185E+04    0.35329E-05   -0.45478E-05  3500   0.480E-03    0.758E-03
RMM:   5    -0.238764856297E+04   -0.11256E-05   -0.13977E-05  3412   0.336E-03    0.288E-03
RMM:   6    -0.238764856590E+04   -0.29288E-05   -0.97464E-06  3464   0.406E-03    0.146E-03
RMM:   7    -0.238764856198E+04    0.39259E-05   -0.57069E-06  3304   0.302E-03    0.643E-04
RMM:   8    -0.238764856153E+04    0.44407E-06   -0.70692E-07  2190   0.714E-04
  56 F= -.24195246E+04 E0= -.24195246E+04  d E =-.112333E-10  mag=     0.0000
       N       E                     dE             d eps       ncg     rms          rms(c)
DAV:   1    -0.238764926830E+04   -0.70633E-03   -0.31291E-01  4416   0.317E-01    0.248E-01
RMM:   2    -0.238764866362E+04    0.60469E-03   -0.35829E-03  3714   0.346E-02    0.136E-01
RMM:   3    -0.238764858593E+04    0.77687E-04   -0.13612E-03  3646   0.162E-02    0.438E-02
RMM:   4    -0.238764856119E+04    0.24742E-04   -0.15300E-04  3474   0.594E-03    0.137E-02
RMM:   5    -0.238764856184E+04   -0.65044E-06   -0.18704E-05  3165   0.270E-03    0.437E-03
RMM:   6    -0.238764856199E+04   -0.15361E-06   -0.58083E-06  2919   0.161E-03
  57 F= -.24195246E+04 E0= -.24195246E+04  d E =-.979807E-11  mag=    -0.0000
       N       E                     dE             d eps       ncg     rms          rms(c)
DAV:   1    -0.238764987651E+04   -0.13147E-02   -0.15754E-01  4224   0.222E-01    0.148E-01
RMM:   2    -0.238764974731E+04    0.12920E-03   -0.12926E-03  3652   0.206E-02    0.839E-02
RMM:   3    -0.238764973350E+04    0.13808E-04   -0.45450E-04  3606   0.976E-03    0.229E-02
RMM:   4    -0.238764972755E+04    0.59556E-05   -0.45431E-05  3458   0.423E-03    0.653E-03
RMM:   5    -0.238764972804E+04   -0.49523E-06   -0.10215E-05  3318   0.268E-03    0.249E-03
RMM:   6    -0.238764972993E+04   -0.18911E-05   -0.69999E-06  3352   0.283E-03    0.116E-03
RMM:   7    -0.238764972757E+04    0.23662E-05   -0.42557E-06  3107   0.215E-03    0.564E-04
RMM:   8    -0.238764972736E+04    0.20600E-06   -0.62495E-07  2112   0.611E-04
  58 F= -.24195258E+04 E0= -.24195258E+04  d E =-.110370E-10  mag=    -0.0000
       N       E                     dE             d eps       ncg     rms          rms(c)
DAV:   1    -0.238764968403E+04    0.43535E-04   -0.31774E-01  4192   0.307E-01    0.165E-01
RMM:   2    -0.238764975402E+04   -0.69991E-04   -0.16099E-03  3659   0.227E-02    0.988E-02
RMM:   3    -0.238764977584E+04   -0.21815E-04   -0.48943E-04  3616   0.113E-02    0.903E-03
RMM:   4    -0.238764977823E+04   -0.23908E-05   -0.55695E-05  3353   0.422E-03    0.492E-03
RMM:   5    -0.238764977913E+04   -0.89579E-06   -0.13017E-05  3006   0.204E-03    0.241E-03
RMM:   6    -0.238764977941E+04   -0.28432E-06   -0.24548E-06  2689   0.127E-03
  59 F= -.24195257E+04 E0= -.24195257E+04  d E =-.101832E-10  mag=     0.0000
       N       E                     dE             d eps       ncg     rms          rms(c)
DAV:   1    -0.238764836025E+04    0.14189E-02   -0.15988E-01  4352   0.223E-01    0.157E-01
RMM:   2    -0.238764819575E+04    0.16450E-03   -0.14342E-03  3673   0.217E-02    0.886E-02
RMM:   3    -0.238764817466E+04    0.21088E-04   -0.52333E-04  3618   0.103E-02    0.251E-02
RMM:   4    -0.238764816689E+04    0.77674E-05   -0.53170E-05  3483   0.442E-03    0.738E-03
RMM:   5    -0.238764816727E+04   -0.37879E-06   -0.11626E-05  3386   0.277E-03    0.264E-03
RMM:   6    -0.238764816899E+04   -0.17235E-05   -0.79525E-06  3378   0.272E-03    0.131E-03
RMM:   7    -0.238764816661E+04    0.23852E-05   -0.43051E-06  3088   0.195E-03    0.613E-04
RMM:   8    -0.238764816649E+04    0.11391E-06   -0.63266E-07  2059   0.562E-04
  60 F= -.24195242E+04 E0= -.24195242E+04  d E =-.119278E-10  mag=     0.0000
       N       E                     dE             d eps       ncg     rms          rms(c)
DAV:   1    -0.238764907887E+04   -0.91227E-03   -0.31435E-01  4464   0.319E-01    0.258E-01
RMM:   2    -0.238764839196E+04    0.68692E-03   -0.39487E-03  3741   0.365E-02    0.141E-01
RMM:   3    -0.238764829645E+04    0.95512E-04   -0.14637E-03  3614   0.169E-02    0.464E-02
RMM:   4    -0.238764826840E+04    0.28045E-04   -0.15575E-04  3491   0.611E-03    0.142E-02
RMM:   5    -0.238764826953E+04   -0.11268E-05   -0.23604E-05  3172   0.282E-03    0.477E-03
RMM:   6    -0.238764826970E+04   -0.17291E-06   -0.62073E-06  2801   0.149E-03
  61 F= -.24195243E+04 E0= -.24195243E+04  d E =-.935080E-11  mag=     0.0000
       N       E                     dE             d eps       ncg     rms          rms(c)
DAV:   1    -0.238764518004E+04    0.30895E-02   -0.63128E-01  4160   0.513E-01    0.197E-01
RMM:   2    -0.238764498528E+04    0.19476E-03   -0.41575E-03  3774   0.426E-02    0.118E-01
RMM:   3    -0.238764482331E+04    0.16197E-03   -0.14199E-03  3714   0.188E-02    0.235E-02
RMM:   4    -0.238764482851E+04   -0.51983E-05   -0.12360E-04  3446   0.705E-03    0.120E-02
RMM:   5    -0.238764483198E+04   -0.34670E-05   -0.38079E-05  3501   0.371E-03    0.519E-03
RMM:   6    -0.238764483386E+04   -0.18826E-05   -0.10102E-05  3364   0.316E-03    0.160E-03
RMM:   7    -0.238764483251E+04    0.13505E-05   -0.59094E-06  3289   0.280E-03    0.851E-04
RMM:   8    -0.238764483190E+04    0.60661E-06   -0.16620E-06  2685   0.128E-03
  62 F= -.24195207E+04 E0= -.24195207E+04  d E =-.735966E-11  mag=     0.0000
       N       E                     dE             d eps       ncg     rms          rms(c)
DAV:   1    -0.238764544417E+04   -0.61166E-03   -0.22141E+00  4160   0.923E-01    0.314E-01
RMM:   2    -0.238764487386E+04    0.57030E-03   -0.11417E-02  3842   0.695E-02    0.190E-01
RMM:   3    -0.238764435732E+04    0.51655E-03   -0.43796E-03  3816   0.317E-02    0.328E-02
RMM:   4    -0.238764438374E+04   -0.26427E-04   -0.35497E-04  3498   0.115E-02    0.193E-02
RMM:   5    -0.238764439473E+04   -0.10981E-04   -0.11298E-04  3621   0.555E-03    0.775E-03
RMM:   6    -0.238764439645E+04   -0.17236E-05   -0.22546E-05  3373   0.284E-03    0.271E-03
RMM:   7    -0.238764439606E+04    0.39124E-06   -0.55439E-06  2966   0.170E-03
  63 F= -.24195206E+04 E0= -.24195206E+04  d E =-.155003E-10  mag=    -0.0000
       N       E                     dE             d eps       ncg     rms          rms(c)
DAV:   1    -0.238764565604E+04   -0.12596E-02   -0.10909E+00  4144   0.655E-01    0.224E-01
RMM:   2    -0.238764544886E+04    0.20718E-03   -0.69584E-03  3808   0.536E-02    0.132E-01
RMM:   3    -0.238764525273E+04    0.19613E-03   -0.23889E-03  3786   0.244E-02    0.281E-02
RMM:   4    -0.238764525825E+04   -0.55192E-05   -0.21524E-04  3650   0.102E-02    0.141E-02
RMM:   5    -0.238764526373E+04   -0.54798E-05   -0.73236E-05  3624   0.632E-03    0.687E-03
RMM:   6    -0.238764527930E+04   -0.15570E-04   -0.56131E-05  3709   0.707E-03    0.323E-03
RMM:   7    -0.238764526169E+04    0.17606E-04   -0.35227E-05  3621   0.542E-03    0.148E-03
RMM:   8    -0.238764526021E+04    0.14803E-05   -0.39724E-06  2934   0.143E-03    0.850E-04
RMM:   9    -0.238764526034E+04   -0.13053E-06   -0.94677E-07  2152   0.648E-04
  64 F= -.24195211E+04 E0= -.24195211E+04  d E =-.267453E-10  mag=     0.0000
       N       E                     dE             d eps       ncg     rms          rms(c)
DAV:   1    -0.238764560223E+04   -0.34202E-03   -0.21649E+00  4192   0.911E-01    0.318E-01
RMM:   2    -0.238764531449E+04    0.28774E-03   -0.14808E-02  3827   0.764E-02    0.185E-01
RMM:   3    -0.238764491679E+04    0.39770E-03   -0.46495E-03  3818   0.338E-02    0.486E-02
RMM:   4    -0.238764492464E+04   -0.78477E-05   -0.36246E-04  3573   0.121E-02    0.236E-02
RMM:   5    -0.238764493225E+04   -0.76045E-05   -0.10066E-04  3497   0.568E-03    0.921E-03
RMM:   6    -0.238764493329E+04   -0.10387E-05   -0.24549E-05  3409   0.281E-03    0.334E-03
RMM:   7    -0.238764493345E+04   -0.16275E-06   -0.51098E-06  2902   0.162E-03
  65 F= -.24195211E+04 E0= -.24195211E+04  d E =-.430765E-11  mag=     0.0000
       N       E                     dE             d eps       ncg     rms          rms(c)
DAV:   1    -0.238764512105E+04   -0.18776E-03   -0.10792E+00  4176   0.646E-01    0.223E-01
RMM:   2    -0.238764489417E+04    0.22688E-03   -0.69197E-03  3790   0.522E-02    0.131E-01
RMM:   3    -0.238764468594E+04    0.20823E-03   -0.23772E-03  3770   0.236E-02    0.275E-02
RMM:   4    -0.238764469125E+04   -0.53075E-05   -0.19283E-04  3584   0.908E-03    0.141E-02
RMM:   5    -0.238764469514E+04   -0.38967E-05   -0.52983E-05  3552   0.495E-03    0.678E-03
RMM:   6    -0.238764470269E+04   -0.75433E-05   -0.26947E-05  3565   0.522E-03    0.234E-03
RMM:   7    -0.238764469777E+04    0.49179E-05   -0.24518E-05  3588   0.509E-03    0.140E-03
RMM:   8    -0.238764469421E+04    0.35568E-05   -0.45906E-06  3116   0.186E-03    0.882E-04
RMM:   9    -0.238764469431E+04   -0.92637E-07   -0.87729E-07  2128   0.633E-04
  66 F= -.24195207E+04 E0= -.24195207E+04  d E =-.204555E-10  mag=     0.0000
       N       E                     dE             d eps       ncg     rms          rms(c)
DAV:   1    -0.238764590686E+04   -0.12126E-02   -0.22030E+00  4176   0.913E-01    0.313E-01
RMM:   2    -0.238764531497E+04    0.59188E-03   -0.11636E-02  3822   0.709E-02    0.190E-01
RMM:   3    -0.238764480684E+04    0.50813E-03   -0.47075E-03  3798   0.328E-02    0.302E-02
RMM:   4    -0.238764482448E+04   -0.17635E-04   -0.34635E-04  3480   0.117E-02    0.187E-02
RMM:   5    -0.238764483324E+04   -0.87660E-05   -0.10422E-04  3556   0.552E-03    0.745E-03
RMM:   6    -0.238764483517E+04   -0.19210E-05   -0.24188E-05  3353   0.284E-03    0.304E-03
RMM:   7    -0.238764483496E+04    0.20539E-06   -0.49339E-06  2931   0.169E-03
  67 F= -.24195208E+04 E0= -.24195208E+04  d E =-.568072E-11  mag=    -0.0000
       N       E                     dE             d eps       ncg     rms          rms(c)
DAV:   1    -0.238764638597E+04   -0.15508E-02   -0.10568E+00  4144   0.639E-01    0.216E-01
RMM:   2    -0.238764635028E+04    0.35696E-04   -0.80600E-03  3778   0.543E-02    0.129E-01
RMM:   3    -0.238764622607E+04    0.12420E-03   -0.26074E-03  3772   0.242E-02    0.339E-02
RMM:   4    -0.238764622674E+04   -0.66252E-06   -0.19925E-04  3612   0.969E-03    0.165E-02
RMM:   5    -0.238764623334E+04   -0.66057E-05   -0.72051E-05  3602   0.632E-03    0.695E-03
RMM:   6    -0.238764624890E+04   -0.15564E-04   -0.49707E-05  3690   0.756E-03    0.321E-03
RMM:   7    -0.238764623187E+04    0.17036E-04   -0.32948E-05  3634   0.604E-03    0.149E-03
RMM:   8    -0.238764622961E+04    0.22619E-05   -0.42240E-06  3077   0.170E-03    0.809E-04
RMM:   9    -0.238764622971E+04   -0.10236E-06   -0.10701E-06  2096   0.663E-04
  68 F= -.24195220E+04 E0= -.24195220E+04  d E =-.913123E-11  mag=    -0.0000
       N       E                     dE             d eps       ncg     rms          rms(c)
DAV:   1    -0.238764689844E+04   -0.66883E-03   -0.20934E+00  4016   0.821E-01    0.320E-01
RMM:   2    -0.238764630491E+04    0.59352E-03   -0.14357E-02  3782   0.704E-02    0.176E-01
RMM:   3    -0.238764613525E+04    0.16966E-03   -0.47578E-03  3794   0.318E-02    0.493E-02
RMM:   4    -0.238764612676E+04    0.84910E-05   -0.36512E-04  3573   0.112E-02    0.215E-02
RMM:   5    -0.238764613569E+04   -0.89283E-05   -0.97844E-05  3507   0.531E-03    0.901E-03
RMM:   6    -0.238764613584E+04   -0.14529E-06   -0.15634E-05  3235   0.257E-03    0.264E-03
RMM:   7    -0.238764613600E+04   -0.16784E-06   -0.47154E-06  2911   0.178E-03
  69 F= -.24195223E+04 E0= -.24195223E+04  d E =-.131584E-10  mag=    -0.0000
       N       E                     dE             d eps       ncg     rms          rms(c)
DAV:   1    -0.238764375921E+04    0.23766E-02   -0.10650E+00  3968   0.600E-01    0.226E-01
RMM:   2    -0.238764388115E+04   -0.12194E-03   -0.87327E-03  3776   0.576E-02    0.129E-01
RMM:   3    -0.238764377652E+04    0.10463E-03   -0.25482E-03  3797   0.246E-02    0.348E-02
RMM:   4    -0.238764378759E+04   -0.11068E-04   -0.22444E-04  3638   0.978E-03    0.175E-02
RMM:   5    -0.238764379342E+04   -0.58312E-05   -0.69430E-05  3620   0.590E-03    0.610E-03
RMM:   6    -0.238764380187E+04   -0.84506E-05   -0.30059E-05  3602   0.649E-03    0.210E-03
RMM:   7    -0.238764379311E+04    0.87633E-05   -0.18963E-05  3541   0.520E-03    0.116E-03
RMM:   8    -0.238764379119E+04    0.19216E-05   -0.31984E-06  2896   0.163E-03    0.622E-04
RMM:   9    -0.238764379123E+04   -0.47468E-07   -0.92603E-07  2082   0.653E-04
  70 F= -.24195198E+04 E0= -.24195198E+04  d E =-.119873E-11  mag=    -0.0000
       N       E                     dE             d eps       ncg     rms          rms(c)
DAV:   1    -0.238764382231E+04   -0.31129E-04   -0.21941E+00  4048   0.867E-01    0.351E-01
RMM:   2    -0.238764360311E+04    0.21920E-03   -0.20609E-02  3808   0.873E-02    0.199E-01
RMM:   3    -0.238764327918E+04    0.32394E-03   -0.62114E-03  3830   0.380E-02    0.562E-02
RMM:   4    -0.238764328650E+04   -0.73212E-05   -0.55221E-04  3698   0.141E-02    0.269E-02
RMM:   5    -0.238764329372E+04   -0.72207E-05   -0.14167E-04  3630   0.660E-03    0.991E-03
RMM:   6    -0.238764329448E+04   -0.76264E-06   -0.28335E-05  3385   0.308E-03    0.314E-03
RMM:   7    -0.238764329503E+04   -0.54995E-06   -0.73106E-06  2960   0.171E-03
  71 F= -.24195193E+04 E0= -.24195193E+04  d E =-.177405E-14  mag=     0.0000
       N       E                     dE             d eps       ncg     rms          rms(c)
DAV:   1    -0.238764562648E+04   -0.23320E-02   -0.10700E+00  3968   0.601E-01    0.231E-01
RMM:   2    -0.238764573209E+04   -0.10561E-03   -0.92405E-03  3778   0.589E-02    0.133E-01
RMM:   3    -0.238764561057E+04    0.12152E-03   -0.27716E-03  3802   0.254E-02    0.341E-02
RMM:   4    -0.238764562007E+04   -0.94989E-05   -0.23283E-04  3627   0.985E-03    0.172E-02
RMM:   5    -0.238764562421E+04   -0.41411E-05   -0.70213E-05  3630   0.569E-03    0.609E-03
RMM:   6    -0.238764563137E+04   -0.71665E-05   -0.33122E-05  3619   0.572E-03    0.249E-03
RMM:   7    -0.238764562379E+04    0.75823E-05   -0.19819E-05  3527   0.438E-03    0.127E-03
RMM:   8    -0.238764562257E+04    0.12200E-05   -0.36809E-06  2918   0.148E-03    0.700E-04
RMM:   9    -0.238764562265E+04   -0.74651E-07   -0.10303E-06  2114   0.654E-04
  72 F= -.24195218E+04 E0= -.24195218E+04  d E =-.644449E-11  mag=     0.0000
       N       E                     dE             d eps       ncg     rms          rms(c)
DAV:   1    -0.238764701968E+04   -0.13971E-02   -0.21095E+00  3984   0.827E-01    0.332E-01
RMM:   2    -0.238764630145E+04    0.71822E-03   -0.15394E-02  3788   0.738E-02    0.181E-01
RMM:   3    -0.238764610505E+04    0.19641E-03   -0.51395E-03  3794   0.332E-02    0.544E-02
RMM:   4    -0.238764609501E+04    0.10035E-04   -0.41460E-04  3532   0.118E-02    0.244E-02
RMM:   5    -0.238764610349E+04   -0.84743E-05   -0.10117E-04  3492   0.549E-03    0.962E-03
RMM:   6    -0.238764610351E+04   -0.23749E-07   -0.18185E-05  3106   0.248E-03    0.314E-03
RMM:   7    -0.238764610381E+04   -0.29692E-06   -0.45972E-06  2650   0.138E-03
  73 F= -.24195219E+04 E0= -.24195219E+04  d E =-.187478E-10  mag=     0.0000
       N       E                     dE             d eps       ncg     rms          rms(c)
DAV:   1    -0.238764610850E+04   -0.49929E-05   -0.91986E-01  3920   0.569E-01    0.193E-01
RMM:   2    -0.238764626526E+04   -0.15675E-03   -0.58982E-03  3758   0.458E-02    0.109E-01
RMM:   3    -0.238764629064E+04   -0.25379E-04   -0.15909E-03  3666   0.178E-02    0.354E-02
RMM:   4    -0.238764628788E+04    0.27574E-05   -0.14763E-04  3577   0.691E-03    0.162E-02
RMM:   5    -0.238764629023E+04   -0.23498E-05   -0.33495E-05  3463   0.376E-03    0.645E-03
RMM:   6    -0.238764629250E+04   -0.22675E-05   -0.11021E-05  3397   0.331E-03    0.193E-03
RMM:   7    -0.238764629137E+04    0.11284E-05   -0.80035E-06  3396   0.332E-03    0.997E-04
RMM:   8    -0.238764628995E+04    0.14220E-05   -0.23425E-06  2788   0.157E-03    0.564E-04
RMM:   9    -0.238764628988E+04    0.67637E-07   -0.48448E-07  1978   0.537E-04
  74 F= -.24195223E+04 E0= -.24195223E+04  d E =-.466227E-10  mag=     0.0000
       N       E                     dE             d eps       ncg     rms          rms(c)
DAV:   1    -0.238764721110E+04   -0.92115E-03   -0.21148E+00  4064   0.812E-01    0.326E-01
RMM:   2    -0.238764648640E+04    0.72469E-03   -0.14767E-02  3778   0.694E-02    0.182E-01
RMM:   3    -0.238764631628E+04    0.17012E-03   -0.56485E-03  3790   0.327E-02    0.542E-02
RMM:   4    -0.238764628696E+04    0.29320E-04   -0.35740E-04  3479   0.110E-02    0.256E-02
RMM:   5    -0.238764629626E+04   -0.92944E-05   -0.10812E-04  3529   0.540E-03    0.982E-03
RMM:   6    -0.238764629534E+04    0.92020E-06   -0.18510E-05  3052   0.240E-03    0.442E-03
RMM:   7    -0.238764629540E+04   -0.61700E-07   -0.48578E-06  2760   0.145E-03
  75 F= -.24195223E+04 E0= -.24195223E+04  d E =-.236988E-11  mag=    -0.0000
       N       E                     dE             d eps       ncg     rms          rms(c)
DAV:   1    -0.238764364684E+04    0.26485E-02   -0.11010E+00  3936   0.579E-01    0.264E-01
RMM:   2    -0.238764299600E+04    0.65083E-03   -0.92861E-03  3772   0.555E-02    0.143E-01
RMM:   3    -0.238764285405E+04    0.14195E-03   -0.36191E-03  3778   0.261E-02    0.485E-02
RMM:   4    -0.238764282766E+04    0.26393E-04   -0.23797E-04  3574   0.898E-03    0.228E-02
RMM:   5    -0.238764283348E+04   -0.58249E-05   -0.69915E-05  3592   0.480E-03    0.851E-03
RMM:   6    -0.238764283473E+04   -0.12454E-05   -0.20830E-05  3478   0.365E-03    0.398E-03
RMM:   7    -0.238764283389E+04    0.83915E-06   -0.11028E-05  3432   0.331E-03    0.145E-03
RMM:   8    -0.238764283238E+04    0.15100E-05   -0.40895E-06  3101   0.190E-03    0.815E-04
RMM:   9    -0.238764283212E+04    0.25664E-06   -0.84092E-07  2135   0.682E-04
  76 F= -.24195188E+04 E0= -.24195188E+04  d E =-.198687E-10  mag=     0.0000
       N       E                     dE             d eps       ncg     rms          rms(c)
DAV:   1    -0.238764395550E+04   -0.11231E-02   -0.22412E+00  4016   0.870E-01    0.359E-01
RMM:   2    -0.238764327920E+04    0.67630E-03   -0.17738E-02  3784   0.805E-02    0.209E-01
RMM:   3    -0.238764288579E+04    0.39341E-03   -0.60891E-03  3810   0.361E-02    0.593E-02
RMM:   4    -0.238764286582E+04    0.19965E-04   -0.42350E-04  3610   0.126E-02    0.272E-02
RMM:   5    -0.238764287527E+04   -0.94449E-05   -0.13065E-04  3628   0.626E-03    0.100E-02
RMM:   6    -0.238764287452E+04    0.75175E-06   -0.21835E-05  3228   0.281E-03    0.398E-03
RMM:   7    -0.238764287462E+04   -0.10437E-06   -0.69277E-06  2957   0.171E-03
  77 F= -.24195189E+04 E0= -.24195189E+04  d E =-.577523E-11  mag=    -0.0000
       N       E                     dE             d eps       ncg     rms          rms(c)
DAV:   1    -0.238764644437E+04   -0.35698E-02   -0.10999E+00  3936   0.581E-01    0.258E-01
RMM:   2    -0.238764581667E+04    0.62769E-03   -0.92638E-03  3770   0.557E-02    0.141E-01
RMM:   3    -0.238764567236E+04    0.14432E-03   -0.35764E-03  3767   0.260E-02    0.452E-02
RMM:   4    -0.238764564640E+04    0.25962E-04   -0.23311E-04  3548   0.896E-03    0.207E-02
RMM:   5    -0.238764565228E+04   -0.58871E-05   -0.72285E-05  3595   0.472E-03    0.805E-03
RMM:   6    -0.238764565255E+04   -0.26522E-06   -0.14933E-05  3415   0.323E-03    0.360E-03
RMM:   7    -0.238764565271E+04   -0.16316E-06   -0.73970E-06  3355   0.299E-03
  78 F= -.24195220E+04 E0= -.24195220E+04  d E =-.885455E-15  mag=    -0.0000
       N       E                     dE             d eps       ncg     rms          rms(c)
DAV:   1    -0.238764714506E+04   -0.14925E-02   -0.21326E+00  4064   0.822E-01    0.336E-01
RMM:   2    -0.238764638606E+04    0.75900E-03   -0.15696E-02  3782   0.721E-02    0.185E-01
RMM:   3    -0.238764619789E+04    0.18817E-03   -0.58789E-03  3802   0.337E-02    0.566E-02
RMM:   4    -0.238764616821E+04    0.29672E-04   -0.38457E-04  3634   0.118E-02    0.265E-02
RMM:   5    -0.238764617869E+04   -0.10478E-04   -0.11833E-04  3656   0.637E-03    0.105E-02
RMM:   6    -0.238764618143E+04   -0.27398E-05   -0.31656E-05  3543   0.504E-03    0.466E-03
RMM:   7    -0.238764618054E+04    0.88773E-06   -0.19778E-05  3544   0.487E-03    0.167E-03
RMM:   8    -0.238764617711E+04    0.34370E-05   -0.74432E-06  3367   0.281E-03    0.977E-04
RMM:   9    -0.238764617661E+04    0.49293E-06   -0.15541E-06  2377   0.944E-04
  79 F= -.24195218E+04 E0= -.24195218E+04  d E =-.204874E-11  mag=    -0.0000
       N       E                     dE             d eps       ncg     rms          rms(c)
DAV:   1    -0.238764587020E+04    0.30691E-03   -0.10342E+00  4144   0.588E-01    0.215E-01
RMM:   2    -0.238764586225E+04    0.79449E-05   -0.80731E-03  3772   0.497E-02    0.130E-01
RMM:   3    -0.238764577613E+04    0.86123E-04   -0.28315E-03  3737   0.232E-02    0.347E-02
RMM:   4    -0.238764576467E+04    0.11462E-04   -0.16624E-04  3419   0.780E-03    0.182E-02
RMM:   5    -0.238764576751E+04   -0.28438E-05   -0.60279E-05  3432   0.396E-03    0.621E-03
RMM:   6    -0.238764576739E+04    0.12337E-06   -0.99773E-06  3073   0.202E-03
  80 F= -.24195220E+04 E0= -.24195220E+04  d E =-.161989E-10  mag=     0.0000
       N       E                     dE             d eps       ncg     rms          rms(c)
DAV:   1    -0.238764637959E+04   -0.61208E-03   -0.21065E+00  4160   0.814E-01    0.310E-01
RMM:   2    -0.238764647440E+04   -0.94810E-04   -0.14157E-02  3852   0.665E-02    0.181E-01
RMM:   3    -0.238764626055E+04    0.21385E-03   -0.42039E-03  3802   0.294E-02    0.521E-02
RMM:   4    -0.238764626923E+04   -0.86756E-05   -0.28737E-04  3630   0.107E-02    0.275E-02
RMM:   5    -0.238764627785E+04   -0.86227E-05   -0.86729E-05  3604   0.607E-03    0.798E-03
RMM:   6    -0.238764628243E+04   -0.45827E-05   -0.30190E-05  3566   0.519E-03    0.305E-03
RMM:   7    -0.238764627882E+04    0.36180E-05   -0.16160E-05  3504   0.415E-03    0.161E-03
RMM:   8    -0.238764627717E+04    0.16443E-05   -0.48747E-06  3164   0.197E-03    0.902E-04
RMM:   9    -0.238764627700E+04    0.16621E-06   -0.13569E-06  2288   0.833E-04
  81 F= -.24195221E+04 E0= -.24195221E+04  d E =-.665421E-11  mag=     0.0000
       N       E                     dE             d eps       ncg     rms          rms(c)
DAV:   1    -0.238764402677E+04    0.22504E-02   -0.10950E+00  4160   0.588E-01    0.247E-01
RMM:   2    -0.238764366681E+04    0.35996E-03   -0.99754E-03  3782   0.553E-02    0.141E-01
RMM:   3    -0.238764352201E+04    0.14480E-03   -0.33382E-03  3750   0.254E-02    0.466E-02
RMM:   4    -0.238764350417E+04    0.17836E-04   -0.22348E-04  3461   0.868E-03    0.222E-02
RMM:   5    -0.238764350892E+04   -0.47416E-05   -0.66054E-05  3419   0.433E-03    0.758E-03
RMM:   6    -0.238764350844E+04    0.47157E-06   -0.12363E-05  2936   0.198E-03    0.368E-03
RMM:   7    -0.238764350845E+04   -0.13097E-08   -0.30182E-06  2569   0.115E-03
  82 F= -.24195196E+04 E0= -.24195196E+04  d E =-.856433E-12  mag=     0.0000
       N       E                     dE             d eps       ncg     rms          rms(c)
DAV:   1    -0.238764550584E+04   -0.19974E-02   -0.22803E+00  4160   0.843E-01    0.402E-01
RMM:   2    -0.238764365552E+04    0.18503E-02   -0.24421E-02  3819   0.877E-02    0.215E-01
RMM:   3    -0.238764326558E+04    0.38994E-03   -0.88432E-03  3818   0.409E-02    0.788E-02
RMM:   4    -0.238764319356E+04    0.72021E-04   -0.58348E-04  3624   0.138E-02    0.355E-02
RMM:   5    -0.238764320191E+04   -0.83522E-05   -0.15637E-04  3648   0.690E-03    0.123E-02
RMM:   6    -0.238764320093E+04    0.98461E-06   -0.30250E-05  3426   0.381E-03    0.549E-03
RMM:   7    -0.238764320109E+04   -0.16770E-06   -0.10905E-05  3358   0.311E-03    0.179E-03
RMM:   8    -0.238764320071E+04    0.38400E-06   -0.61706E-06  3214   0.244E-03
  83 F= -.24195191E+04 E0= -.24195191E+04  d E =-.237891E-14  mag=    -0.0000
       N       E                     dE             d eps       ncg     rms          rms(c)
DAV:   1    -0.238764573684E+04   -0.25357E-02   -0.11024E+00  4160   0.583E-01    0.248E-01
RMM:   2    -0.238764538217E+04    0.35467E-03   -0.10370E-02  3786   0.554E-02    0.143E-01
RMM:   3    -0.238764523806E+04    0.14411E-03   -0.34510E-03  3753   0.255E-02    0.476E-02
RMM:   4    -0.238764521774E+04    0.20320E-04   -0.22117E-04  3468   0.866E-03    0.215E-02
RMM:   5    -0.238764522288E+04   -0.51394E-05   -0.67708E-05  3459   0.440E-03    0.740E-03
RMM:   6    -0.238764522219E+04    0.69445E-06   -0.10928E-05  2962   0.201E-03    0.347E-03
RMM:   7    -0.238764522227E+04   -0.78755E-07   -0.35276E-06  2702   0.135E-03
  84 F= -.24195217E+04 E0= -.24195217E+04  d E =-.177054E-10  mag=    -0.0000
       N       E                     dE             d eps       ncg     rms          rms(c)
DAV:   1    -0.238764621038E+04   -0.98819E-03   -0.21272E+00  4160   0.818E-01    0.297E-01
RMM:   2    -0.238764631817E+04   -0.10779E-03   -0.14313E-02  3852   0.682E-02    0.182E-01
RMM:   3    -0.238764610567E+04    0.21250E-03   -0.44516E-03  3816   0.306E-02    0.392E-02
RMM:   4    -0.238764610833E+04   -0.26549E-05   -0.30417E-04  3624   0.112E-02    0.198E-02
RMM:   5    -0.238764611584E+04   -0.75103E-05   -0.10087E-04  3670   0.613E-03    0.764E-03
RMM:   6    -0.238764612247E+04   -0.66325E-05   -0.35471E-05  3575   0.536E-03    0.290E-03
RMM:   7    -0.238764611856E+04    0.39097E-05   -0.28483E-05  3570   0.493E-03    0.161E-03
RMM:   8    -0.238764611486E+04    0.36962E-05   -0.76209E-06  3128   0.233E-03    0.965E-04
RMM:   9    -0.238764611472E+04    0.14136E-06   -0.15262E-06  2271   0.817E-04
  85 F= -.24195216E+04 E0= -.24195216E+04  d E =-.645700E-11  mag=    -0.0000
       N       E                     dE             d eps       ncg     rms          rms(c)
DAV:   1    -0.238764608611E+04    0.28751E-04   -0.10235E+00  4160   0.593E-01    0.209E-01
RMM:   2    -0.238764623553E+04   -0.14942E-03   -0.82786E-03  3782   0.508E-02    0.127E-01
RMM:   3    -0.238764616675E+04    0.68781E-04   -0.24979E-03  3740   0.225E-02    0.336E-02
RMM:   4    -0.238764616488E+04    0.18667E-05   -0.15784E-04  3434   0.770E-03    0.164E-02
RMM:   5    -0.238764616778E+04   -0.29014E-05   -0.51464E-05  3427   0.378E-03    0.561E-03
RMM:   6    -0.238764616783E+04   -0.51135E-07   -0.79177E-06  2861   0.171E-03
  86 F= -.24195222E+04 E0= -.24195222E+04  d E =-.220384E-10  mag=    -0.0000
       N       E                     dE             d eps       ncg     rms          rms(c)
DAV:   1    -0.238764657756E+04   -0.40978E-03   -0.20903E+00  4128   0.816E-01    0.320E-01
RMM:   2    -0.238764626958E+04    0.30797E-03   -0.15887E-02  3822   0.733E-02    0.178E-01
RMM:   3    -0.238764611921E+04    0.15037E-03   -0.52570E-03  3798   0.332E-02    0.458E-02
RMM:   4    -0.238764611053E+04    0.86802E-05   -0.38960E-04  3578   0.116E-02    0.221E-02
RMM:   5    -0.238764611867E+04   -0.81360E-05   -0.11102E-04  3607   0.565E-03    0.914E-03
RMM:   6    -0.238764612021E+04   -0.15410E-05   -0.22950E-05  3404   0.355E-03    0.355E-03
RMM:   7    -0.238764611948E+04    0.73152E-06   -0.95535E-06  3258   0.291E-03
  87 F= -.24195221E+04 E0= -.24195221E+04  d E =-.528727E-11  mag=    -0.0000
       N       E                     dE             d eps       ncg     rms          rms(c)
DAV:   1    -0.238764345191E+04    0.26683E-02   -0.10639E+00  4096   0.603E-01    0.224E-01
RMM:   2    -0.238764361488E+04   -0.16297E-03   -0.93003E-03  3798   0.586E-02    0.131E-01
RMM:   3    -0.238764350852E+04    0.10636E-03   -0.27349E-03  3811   0.255E-02    0.365E-02
RMM:   4    -0.238764351941E+04   -0.10896E-04   -0.23523E-04  3654   0.106E-02    0.189E-02
RMM:   5    -0.238764353040E+04   -0.10990E-04   -0.90313E-05  3675   0.754E-03    0.538E-03
RMM:   6    -0.238764354675E+04   -0.16350E-04   -0.82258E-05  3752   0.898E-03    0.280E-03
RMM:   7    -0.238764352174E+04    0.25011E-04   -0.37890E-05  3580   0.561E-03    0.139E-03
RMM:   8    -0.238764352124E+04    0.49538E-06   -0.43031E-06  2885   0.135E-03
  88 F= -.24195197E+04 E0= -.24195197E+04  d E =-.121008E-14  mag=    -0.0000
       N       E                     dE             d eps       ncg     rms          rms(c)
DAV:   1    -0.238764415378E+04   -0.63204E-03   -0.21990E+00  4128   0.868E-01    0.355E-01
RMM:   2    -0.238764402532E+04    0.12846E-03   -0.22189E-02  3814   0.911E-02    0.199E-01
RMM:   3    -0.238764374479E+04    0.28053E-03   -0.65765E-03  3838   0.394E-02    0.615E-02
RMM:   4    -0.238764375888E+04   -0.14089E-04   -0.61289E-04  3711   0.150E-02    0.290E-02
RMM:   5    -0.238764377000E+04   -0.11113E-04   -0.15649E-04  3675   0.742E-03    0.110E-02
RMM:   6    -0.238764377382E+04   -0.38238E-05   -0.37856E-05  3535   0.515E-03    0.365E-03
RMM:   7    -0.238764377256E+04    0.12633E-05   -0.19655E-05  3504   0.448E-03    0.162E-03
RMM:   8    -0.238764377172E+04    0.83487E-06   -0.87927E-06  3246   0.298E-03
  89 F= -.24195196E+04 E0= -.24195196E+04  d E =-.170002E-11  mag=    -0.0000
       N       E                     dE             d eps       ncg     rms          rms(c)
DAV:   1    -0.238764562132E+04   -0.18488E-02   -0.10660E+00  4064   0.613E-01    0.222E-01
RMM:   2    -0.238764579076E+04   -0.16944E-03   -0.93000E-03  3782   0.591E-02    0.130E-01
RMM:   3    -0.238764568639E+04    0.10437E-03   -0.26996E-03  3802   0.254E-02    0.340E-02
RMM:   4    -0.238764569917E+04   -0.12784E-04   -0.24585E-04  3559   0.966E-03    0.174E-02
RMM:   5    -0.238764570312E+04   -0.39474E-05   -0.71766E-05  3604   0.494E-03    0.586E-03
RMM:   6    -0.238764570593E+04   -0.28138E-05   -0.18168E-05  3388   0.367E-03    0.218E-03
RMM:   7    -0.238764570451E+04    0.14236E-05   -0.12040E-05  3269   0.314E-03    0.110E-03
RMM:   8    -0.238764570339E+04    0.11199E-05   -0.37299E-06  2831   0.161E-03    0.612E-04
RMM:   9    -0.238764570328E+04    0.11016E-06   -0.96293E-07  2131   0.704E-04
  90 F= -.24195220E+04 E0= -.24195220E+04  d E =-.180045E-10  mag=    -0.0000
       N       E                     dE             d eps       ncg     rms          rms(c)
DAV:   1    -0.238764680033E+04   -0.10969E-02   -0.21117E+00  4144   0.838E-01    0.327E-01
RMM:   2    -0.238764630852E+04    0.49181E-03   -0.15790E-02  3814   0.744E-02    0.180E-01
RMM:   3    -0.238764613950E+04    0.16902E-03   -0.53391E-03  3798   0.337E-02    0.491E-02
RMM:   4    -0.238764612407E+04    0.15423E-04   -0.38892E-04  3539   0.117E-02    0.235E-02
RMM:   5    -0.238764613363E+04   -0.95594E-05   -0.12245E-04  3599   0.570E-03    0.986E-03
RMM:   6    -0.238764613351E+04    0.12302E-06   -0.22723E-05  3180   0.257E-03    0.415E-03
RMM:   7    -0.238764613350E+04    0.99535E-08   -0.47246E-06  2692   0.140E-03
  91 F= -.24195219E+04 E0= -.24195219E+04  d E =-.658374E-11  mag=    -0.0000
       N       E                     dE             d eps       ncg     rms          rms(c)
DAV:   1    -0.238764465543E+04    0.14781E-02   -0.10554E+00  4096   0.654E-01    0.215E-01
RMM:   2    -0.238764466701E+04   -0.11581E-04   -0.84929E-03  3772   0.561E-02    0.130E-01
RMM:   3    -0.238764453153E+04    0.13548E-03   -0.27054E-03  3754   0.249E-02    0.324E-02
RMM:   4    -0.238764453084E+04    0.68877E-06   -0.20401E-04  3516   0.899E-03    0.165E-02
RMM:   5    -0.238764453669E+04   -0.58519E-05   -0.70057E-05  3578   0.489E-03    0.702E-03
RMM:   6    -0.238764454066E+04   -0.39688E-05   -0.23009E-05  3485   0.401E-03    0.287E-03
RMM:   7    -0.238764453792E+04    0.27394E-05   -0.17784E-05  3438   0.362E-03    0.132E-03
RMM:   8    -0.238764453588E+04    0.20457E-05   -0.46794E-06  2923   0.173E-03    0.781E-04
RMM:   9    -0.238764453581E+04    0.66037E-07   -0.89392E-07  2036   0.617E-04
  92 F= -.24195207E+04 E0= -.24195207E+04  d E =-.435441E-11  mag=    -0.0000
       N       E                     dE             d eps       ncg     rms          rms(c)
DAV:   1    -0.238764619944E+04   -0.16636E-02   -0.21901E+00  4176   0.945E-01    0.314E-01
RMM:   2    -0.238764550646E+04    0.69298E-03   -0.11268E-02  3805   0.706E-02    0.190E-01
RMM:   3    -0.238764498294E+04    0.52353E-03   -0.45627E-03  3803   0.323E-02    0.314E-02
RMM:   4    -0.238764500127E+04   -0.18334E-04   -0.33237E-04  3502   0.116E-02    0.196E-02
RMM:   5    -0.238764500990E+04   -0.86300E-05   -0.10106E-04  3540   0.549E-03    0.712E-03
RMM:   6    -0.238764501126E+04   -0.13640E-05   -0.20673E-05  3355   0.268E-03    0.258E-03
RMM:   7    -0.238764501116E+04    0.10635E-06   -0.47324E-06  2795   0.149E-03
  93 F= -.24195209E+04 E0= -.24195209E+04  d E =-.268859E-10  mag=     0.0000
       N       E                     dE             d eps       ncg     rms          rms(c)
DAV:   1    -0.238764576388E+04   -0.75262E-03   -0.10737E+00  4144   0.658E-01    0.222E-01
RMM:   2    -0.238764552320E+04    0.24068E-03   -0.68852E-03  3766   0.532E-02    0.131E-01
RMM:   3    -0.238764530676E+04    0.21644E-03   -0.22827E-03  3758   0.242E-02    0.292E-02
RMM:   4    -0.238764531366E+04   -0.69060E-05   -0.19881E-04  3594   0.985E-03    0.147E-02
RMM:   5    -0.238764531839E+04   -0.47332E-05   -0.63654E-05  3584   0.574E-03    0.660E-03
RMM:   6    -0.238764533060E+04   -0.12204E-04   -0.45053E-05  3621   0.605E-03    0.283E-03
RMM:   7    -0.238764531716E+04    0.13443E-04   -0.29784E-05  3550   0.475E-03    0.146E-03
RMM:   8    -0.238764531554E+04    0.16102E-05   -0.34796E-06  2723   0.134E-03    0.949E-04
RMM:   9    -0.238764531564E+04   -0.90193E-07   -0.87939E-07  2100   0.613E-04
  94 F= -.24195212E+04 E0= -.24195212E+04  d E =-.648953E-11  mag=     0.0000
       N       E                     dE             d eps       ncg     rms          rms(c)
DAV:   1    -0.238764553779E+04   -0.22225E-03   -0.21650E+00  4160   0.930E-01    0.314E-01
RMM:   2    -0.238764517506E+04    0.36273E-03   -0.13930E-02  3778   0.755E-02    0.185E-01
RMM:   3    -0.238764480428E+04    0.37078E-03   -0.44751E-03  3774   0.336E-02    0.425E-02
RMM:   4    -0.238764481056E+04   -0.62844E-05   -0.36838E-04  3500   0.123E-02    0.201E-02
RMM:   5    -0.238764481920E+04   -0.86409E-05   -0.10455E-04  3438   0.570E-03    0.980E-03
RMM:   6    -0.238764481999E+04   -0.78234E-06   -0.22976E-05  3333   0.271E-03    0.319E-03
RMM:   7    -0.238764482019E+04   -0.20856E-06   -0.56346E-06  2843   0.153E-03
  95 F= -.24195209E+04 E0= -.24195209E+04  d E =-.179424E-10  mag=     0.0000
       N       E                     dE             d eps       ncg     rms          rms(c)
DAV:   1    -0.238764467813E+04    0.14185E-03   -0.10839E+00  4144   0.663E-01    0.222E-01
RMM:   2    -0.238764448388E+04    0.19425E-03   -0.71353E-03  3760   0.545E-02    0.131E-01
RMM:   3    -0.238764429254E+04    0.19134E-03   -0.23458E-03  3734   0.245E-02    0.304E-02
RMM:   4    -0.238764429538E+04   -0.28415E-05   -0.19138E-04  3492   0.913E-03    0.147E-02
RMM:   5    -0.238764430004E+04   -0.46610E-05   -0.54750E-05  3506   0.461E-03    0.675E-03
RMM:   6    -0.238764430271E+04   -0.26636E-05   -0.15409E-05  3426   0.364E-03    0.247E-03
RMM:   7    -0.238764430208E+04    0.62460E-06   -0.10834E-05  3434   0.359E-03    0.126E-03
RMM:   8    -0.238764430023E+04    0.18486E-05   -0.34033E-06  2965   0.180E-03    0.825E-04
RMM:   9    -0.238764430019E+04    0.41327E-07   -0.81381E-07  2072   0.660E-04
  96 F= -.24195205E+04 E0= -.24195205E+04  d E =-.944890E-11  mag=     0.0000
       N       E                     dE             d eps       ncg     rms          rms(c)
DAV:   1    -0.238764613168E+04   -0.18314E-02   -0.22034E+00  4144   0.940E-01    0.313E-01
RMM:   2    -0.238764555665E+04    0.57503E-03   -0.11159E-02  3838   0.696E-02    0.189E-01
RMM:   3    -0.238764503669E+04    0.51995E-03   -0.39847E-03  3794   0.311E-02    0.362E-02
RMM:   4    -0.238764506356E+04   -0.26868E-04   -0.32738E-04  3522   0.113E-02    0.207E-02
RMM:   5    -0.238764507371E+04   -0.10148E-04   -0.97687E-05  3558   0.528E-03    0.715E-03
RMM:   6    -0.238764507504E+04   -0.13275E-05   -0.20697E-05  3277   0.239E-03    0.258E-03
RMM:   7    -0.238764507504E+04   -0.50932E-08   -0.27952E-06  2477   0.108E-03
  97 F= -.24195209E+04 E0= -.24195209E+04  d E =-.123698E-10  mag=    -0.0000
       N       E                     dE             d eps       ncg     rms          rms(c)
DAV:   1    -0.238764669265E+04   -0.16176E-02   -0.10752E+00  4144   0.673E-01    0.217E-01
RMM:   2    -0.238764674189E+04   -0.49239E-04   -0.85534E-03  3846   0.560E-02    0.130E-01
RMM:   3    -0.238764656594E+04    0.17595E-03   -0.24137E-03  3778   0.247E-02    0.368E-02
RMM:   4    -0.238764658175E+04   -0.15811E-04   -0.23330E-04  3594   0.948E-03    0.194E-02
RMM:   5    -0.238764658817E+04   -0.64182E-05   -0.65635E-05  3559   0.519E-03    0.636E-03
RMM:   6    -0.238764659163E+04   -0.34641E-05   -0.22782E-05  3520   0.437E-03    0.259E-03
RMM:   7    -0.238764658943E+04    0.22015E-05   -0.13900E-05  3459   0.371E-03    0.132E-03
RMM:   8    -0.238764658777E+04    0.16638E-05   -0.42278E-06  3069   0.187E-03    0.731E-04
RMM:   9    -0.238764658760E+04    0.16944E-06   -0.10536E-06  2182   0.743E-04
  98 F= -.24195223E+04 E0= -.24195223E+04  d E =-.296030E-11  mag=     0.0000
       N       E                     dE             d eps       ncg     rms          rms(c)
DAV:   1    -0.238764743050E+04   -0.84273E-03   -0.21167E+00  4128   0.846E-01    0.319E-01
RMM:   2    -0.238764656468E+04    0.86582E-03   -0.14293E-02  3910   0.708E-02    0.176E-01
RMM:   3    -0.238764630382E+04    0.26087E-03   -0.50878E-03  3903   0.328E-02    0.495E-02
RMM:   4    -0.238764629296E+04    0.10853E-04   -0.35933E-04  3608   0.115E-02    0.217E-02
RMM:   5    -0.238764630265E+04   -0.96830E-05   -0.10891E-04  3664   0.559E-03    0.903E-03
RMM:   6    -0.238764630274E+04   -0.92608E-07   -0.16498E-05  3322   0.252E-03    0.320E-03
RMM:   7    -0.238764630289E+04   -0.15082E-06   -0.48039E-06  2887   0.154E-03
  99 F= -.24195226E+04 E0= -.24195226E+04  d E =-.372291E-10  mag=    -0.0000
       N       E                     dE             d eps       ncg     rms          rms(c)
DAV:   1    -0.238764359992E+04    0.27028E-02   -0.10890E+00  4096   0.599E-01    0.246E-01
RMM:   2    -0.238764321637E+04    0.38355E-03   -0.95304E-03  3846   0.564E-02    0.139E-01
RMM:   3    -0.238764302249E+04    0.19388E-03   -0.31240E-03  3804   0.258E-02    0.392E-02
RMM:   4    -0.238764301271E+04    0.97748E-05   -0.21565E-04  3577   0.937E-03    0.184E-02
RMM:   5    -0.238764301817E+04   -0.54565E-05   -0.71367E-05  3616   0.533E-03    0.711E-03
RMM:   6    -0.238764302233E+04   -0.41619E-05   -0.25448E-05  3533   0.469E-03    0.328E-03
RMM:   7    -0.238764302014E+04    0.21961E-05   -0.21924E-05  3533   0.448E-03    0.149E-03
RMM:   8    -0.238764301617E+04    0.39606E-05   -0.56062E-06  3092   0.203E-03    0.765E-04
RMM:   9    -0.238764301619E+04   -0.13009E-07   -0.82455E-07  2069   0.601E-04
 100 F= -.24195193E+04 E0= -.24195193E+04  d E =-.362785E-11  mag=    -0.0000
       N       E                     dE             d eps       ncg     rms          rms(c)
DAV:   1    -0.238764405745E+04   -0.10413E-02   -0.22287E+00  4128   0.869E-01    0.363E-01
RMM:   2    -0.238764343545E+04    0.62200E-03   -0.17972E-02  3872   0.829E-02    0.208E-01
RMM:   3    -0.238764298772E+04    0.44772E-03   -0.58687E-03  3830   0.363E-02    0.567E-02
RMM:   4    -0.238764297589E+04    0.11833E-04   -0.39968E-04  3595   0.128E-02    0.276E-02
RMM:   5    -0.238764298547E+04   -0.95827E-05   -0.13849E-04  3655   0.649E-03    0.104E-02
RMM:   6    -0.238764298581E+04   -0.33760E-06   -0.25974E-05  3358   0.303E-03    0.452E-03
RMM:   7    -0.238764298595E+04   -0.14453E-06   -0.65182E-06  3002   0.191E-03
 101 F= -.24195187E+04 E0= -.24195187E+04  d E =-.303808E-10  mag=     0.0000
       N       E                     dE             d eps       ncg     rms          rms(c)
DAV:   1    -0.238764655197E+04   -0.35662E-02   -0.11001E+00  4064   0.594E-01    0.252E-01
RMM:   2    -0.238764602407E+04    0.52790E-03   -0.92723E-03  3830   0.568E-02    0.140E-01
RMM:   3    -0.238764581974E+04    0.20433E-03   -0.31809E-03  3821   0.261E-02    0.404E-02
RMM:   4    -0.238764580646E+04    0.13277E-04   -0.22261E-04  3603   0.937E-03    0.188E-02
RMM:   5    -0.238764581095E+04   -0.44904E-05   -0.62793E-05  3617   0.517E-03    0.725E-03
RMM:   6    -0.238764581520E+04   -0.42406E-05   -0.20759E-05  3529   0.472E-03    0.298E-03
RMM:   7    -0.238764581268E+04    0.25181E-05   -0.16188E-05  3527   0.451E-03    0.140E-03
RMM:   8    -0.238764580941E+04    0.32678E-05   -0.40337E-06  3052   0.193E-03    0.787E-04
RMM:   9    -0.238764580940E+04    0.99244E-08   -0.79687E-07  2074   0.615E-04
 102 F= -.24195218E+04 E0= -.24195218E+04  d E =-.136759E-11  mag=     0.0000
       N       E                     dE             d eps       ncg     rms          rms(c)
DAV:   1    -0.238764693965E+04   -0.11302E-02   -0.21381E+00  4128   0.843E-01    0.324E-01
RMM:   2    -0.238764624971E+04    0.68994E-03   -0.14981E-02  3878   0.738E-02    0.184E-01
RMM:   3    -0.238764594457E+04    0.30514E-03   -0.51851E-03  3824   0.338E-02    0.469E-02
RMM:   4    -0.238764593454E+04    0.10030E-04   -0.36898E-04  3560   0.118E-02    0.224E-02
RMM:   5    -0.238764594244E+04   -0.78988E-05   -0.10745E-04  3615   0.562E-03    0.877E-03
RMM:   6    -0.238764594252E+04   -0.86555E-07   -0.16877E-05  3234   0.256E-03    0.322E-03
RMM:   7    -0.238764594278E+04   -0.25731E-06   -0.53495E-06  2945   0.173E-03
 103 F= -.24195220E+04 E0= -.24195220E+04  d E =-.139117E-14  mag=     0.0000
       N       E                     dE             d eps       ncg     rms          rms(c)
DAV:   1    -0.238764661451E+04   -0.67199E-03   -0.10385E+00  4064   0.598E-01    0.215E-01
RMM:   2    -0.238764652481E+04    0.89697E-04   -0.72688E-03  3810   0.502E-02    0.127E-01
RMM:   3    -0.238764641245E+04    0.11236E-03   -0.25533E-03  3752   0.231E-02    0.299E-02
RMM:   4    -0.238764640556E+04    0.68942E-05   -0.15421E-04  3542   0.842E-03    0.155E-02
RMM:   5    -0.238764640939E+04   -0.38292E-05   -0.59497E-05  3542   0.504E-03    0.561E-03
RMM:   6    -0.238764641446E+04   -0.50775E-05   -0.27571E-05  3560   0.512E-03    0.276E-03
RMM:   7    -0.238764640944E+04    0.50294E-05   -0.19276E-05  3489   0.424E-03    0.136E-03
RMM:   8    -0.238764640706E+04    0.23762E-05   -0.40608E-06  2930   0.166E-03    0.703E-04
RMM:   9    -0.238764640708E+04   -0.16997E-07   -0.78132E-07  2018   0.583E-04
 104 F= -.24195222E+04 E0= -.24195222E+04  d E =-.878558E-11  mag=     0.0000
       N       E                     dE             d eps       ncg     rms          rms(c)
DAV:   1    -0.238764652199E+04   -0.11493E-03   -0.20997E+00  4016   0.838E-01    0.297E-01
RMM:   2    -0.238764621440E+04    0.30759E-03   -0.11946E-02  3836   0.643E-02    0.172E-01
RMM:   3    -0.238764600037E+04    0.21403E-03   -0.40230E-03  3820   0.292E-02    0.443E-02
RMM:   4    -0.238764600780E+04   -0.74342E-05   -0.30544E-04  3527   0.106E-02    0.215E-02
RMM:   5    -0.238764601439E+04   -0.65886E-05   -0.87360E-05  3601   0.512E-03    0.799E-03
RMM:   6    -0.238764601484E+04   -0.45190E-06   -0.15779E-05  3233   0.241E-03    0.287E-03
RMM:   7    -0.238764601500E+04   -0.15952E-06   -0.40810E-06  2805   0.156E-03
 105 F= -.24195223E+04 E0= -.24195223E+04  d E =-.128251E-10  mag=    -0.0000
       N       E                     dE             d eps       ncg     rms          rms(c)
DAV:   1    -0.238764379408E+04    0.22208E-02   -0.10958E+00  4000   0.587E-01    0.249E-01
RMM:   2    -0.238764334919E+04    0.44489E-03   -0.79887E-03  3804   0.540E-02    0.138E-01
RMM:   3    -0.238764317044E+04    0.17876E-03   -0.30354E-03  3798   0.251E-02    0.366E-02
RMM:   4    -0.238764315492E+04    0.15520E-04   -0.18369E-04  3568   0.900E-03    0.181E-02
RMM:   5    -0.238764316021E+04   -0.52883E-05   -0.72593E-05  3601   0.527E-03    0.758E-03
RMM:   6    -0.238764316370E+04   -0.34949E-05   -0.22365E-05  3522   0.501E-03    0.333E-03
RMM:   7    -0.238764316232E+04    0.13846E-05   -0.17063E-05  3524   0.491E-03    0.156E-03
RMM:   8    -0.238764315827E+04    0.40469E-05   -0.51151E-06  3168   0.240E-03    0.867E-04
RMM:   9    -0.238764315815E+04    0.12034E-06   -0.88721E-07  2146   0.674E-04
 106 F= -.24195194E+04 E0= -.24195194E+04  d E =-.412235E-14  mag=     0.0000
       N       E                     dE             d eps       ncg     rms          rms(c)
DAV:   1    -0.238764580232E+04   -0.26441E-02   -0.22597E+00  4048   0.854E-01    0.398E-01
RMM:   2    -0.238764437616E+04    0.14262E-02   -0.21840E-02  3860   0.868E-02    0.212E-01
RMM:   3    -0.238764390060E+04    0.47557E-03   -0.77086E-03  3824   0.398E-02    0.702E-02
RMM:   4    -0.238764385101E+04    0.49587E-04   -0.45499E-04  3566   0.131E-02    0.322E-02
RMM:   5    -0.238764386090E+04   -0.98850E-05   -0.15492E-04  3624   0.653E-03    0.123E-02
RMM:   6    -0.238764385950E+04    0.13910E-05   -0.33787E-05  3312   0.318E-03    0.547E-03
RMM:   7    -0.238764385920E+04    0.30358E-06   -0.60059E-06  3012   0.196E-03
 107 F= -.24195196E+04 E0= -.24195196E+04  d E =-.523214E-12  mag=     0.0000
       N       E                     dE             d eps       ncg     rms          rms(c)
DAV:   1    -0.238764625348E+04   -0.23940E-02   -0.10913E+00  4000   0.594E-01    0.249E-01
RMM:   2    -0.238764587680E+04    0.37669E-03   -0.81966E-03  3830   0.554E-02    0.139E-01
RMM:   3    -0.238764569110E+04    0.18570E-03   -0.29377E-03  3786   0.254E-02    0.356E-02
RMM:   4    -0.238764567991E+04    0.11182E-04   -0.19332E-04  3600   0.940E-03    0.176E-02
RMM:   5    -0.238764568548E+04   -0.55615E-05   -0.74839E-05  3627   0.564E-03    0.713E-03
RMM:   6    -0.238764569318E+04   -0.77025E-05   -0.36731E-05  3603   0.577E-03    0.325E-03
RMM:   7    -0.238764568563E+04    0.75451E-05   -0.27776E-05  3567   0.496E-03    0.176E-03
RMM:   8    -0.238764568247E+04    0.31605E-05   -0.50183E-06  3004   0.184E-03    0.867E-04
RMM:   9    -0.238764568250E+04   -0.32218E-07   -0.90325E-07  2071   0.627E-04
 108 F= -.24195217E+04 E0= -.24195217E+04  d E =-.595004E-11  mag=    -0.0000
       N       E                     dE             d eps       ncg     rms          rms(c)
DAV:   1    -0.238764609646E+04   -0.41399E-03   -0.21071E+00  4016   0.850E-01    0.304E-01
RMM:   2    -0.238764591529E+04    0.18117E-03   -0.12534E-02  3844   0.667E-02    0.179E-01
RMM:   3    -0.238764566917E+04    0.24612E-03   -0.40763E-03  3792   0.300E-02    0.418E-02
RMM:   4    -0.238764567909E+04   -0.99233E-05   -0.30249E-04  3490   0.108E-02    0.218E-02
RMM:   5    -0.238764568455E+04   -0.54553E-05   -0.90952E-05  3542   0.521E-03    0.724E-03
RMM:   6    -0.238764568563E+04   -0.10767E-05   -0.18128E-05  3240   0.252E-03    0.288E-03
RMM:   7    -0.238764568589E+04   -0.26406E-06   -0.40951E-06  2789   0.162E-03
 109 F= -.24195217E+04 E0= -.24195217E+04  d E =-.185034E-10  mag=     0.0000
