Al1 Si95 H11 C8 O192
1.0
  20.1094817252371136    0.0070473679037543    0.0206700111123847
   0.0070088637591417   19.9585180233430606   -0.0117710873804922
   0.0138152909543955   -0.0079126492652479   13.4569772611921934
Al Si H C O
1 95 11 8 192
Selective dynamics
direct
   0.3228610402062508    0.3276616075540014    0.6731259522262790 F F F Al
   0.4234398284941079    0.0540621253836619    0.1470589200997660 F F F Si
   0.3034622527450287    0.0253635994320604    0.2908090616337618 F F F Si
   0.2804750425735327    0.0606523436893414    0.5117585851118240 F F F Si
   0.1211473066812507    0.0670430778746884    0.5141603038378801 F F F Si
   0.0702184364701359    0.0307243973133560    0.3039100788154692 F F F Si
   0.1799401143685979    0.0543737238488241    0.1521575281920335 F F F Si
   0.4211162337587728    0.8270667884693169    0.1648869010219391 F F F Si
   0.3040421193649988    0.8682148152216567    0.3076112119175905 F F F Si
   0.2693466039978060    0.8249555027316339    0.5250725729260693 F F F Si
   0.1144424869354114    0.8247466241406948    0.5127380904651071 F F F Si
   0.0651649964828566    0.8734803165559463    0.3045962744126165 F F F Si
   0.1806586764345648    0.8323939670983074    0.1712806031496125 F F F Si
   0.0767958260187987    0.9428352219111050    0.6452106759138841 F F F Si
   0.1955121328381521    0.9707406652873088    0.7898643412170463 F F F Si
   0.2186969584221979    0.9380057978022853    0.0104500685922226 F F F Si
   0.3778831502878008    0.9333314566694628    0.0104635193545509 F F F Si
   0.4300265602025498    0.9692800727979820    0.8000680724477125 F F F Si
   0.3196990931006729    0.9427855886850403    0.6508945509459815 F F F Si
   0.0787047197721832    0.1720951691207704    0.6715782326332170 F F F Si
   0.1968028777061302    0.1276675055499055    0.8083735395576006 F F F Si
   0.2333561464948017    0.1707106008398752    0.0266509142123135 F F F Si
   0.3878875657721032    0.1722257082546488    0.0165314029881766 F F F Si
   0.4354485765639142    0.1275870044858171    0.8037572004936411 F F F Si
   0.3184069679808967    0.1675623708960166    0.6713367499847201 F F F Si
   0.5768960766778547    0.5566037161398519    0.8512409998894885 F F F Si
   0.6953800581338208    0.5298783987312948    0.7083882693007562 F F F Si
   0.7189832838359558    0.5577741024737022    0.4832430797311586 F F F Si
   0.8790353745987786    0.5667306416782901    0.4861627850980762 F F F Si
   0.9327953588113717    0.5301162427345458    0.6959165464904504 F F F Si
   0.8206611008491597    0.5634044061524568    0.8354603210118641 F F F Si
   0.5836430682815129    0.3272154786783290    0.8385536678268104 F F F Si
   0.6988261517653060    0.3708435166519736    0.7007590866344598 F F F Si
   0.7307757980032997    0.3298661561119950    0.4817318939941595 F F F Si
   0.8854107174682759    0.3260369423002201    0.4900123758624389 F F F Si
   0.9320443525346211    0.3731074014019768    0.7016153557383862 F F F Si
   0.8193051256648459    0.3277053486139087    0.8359377837908493 F F F Si
   0.9232448305322498    0.4406266826878338    0.3534498680128033 F F F Si
   0.8069631294074123    0.4681823862750769    0.2075049081629608 F F F Si
   0.7837203037701831    0.4432953845924157    0.9834127075358624 F F F Si
   0.6254839190065167    0.4353517251195052    0.9882234754052527 F F F Si
   0.5698073859580527    0.4702416992456400    0.1991039161410819 F F F Si
   0.6834144178661110    0.4355141865373073    0.3357890732775435 F F F Si
   0.9216054834879315    0.6726441322887491    0.3290153210689454 F F F Si
   0.8013799466703611    0.6273631659424544    0.2006874926175379 F F F Si
   0.7691481542661793    0.6688598690040729    0.9814503553612770 F F F Si
   0.6140549356252664    0.6721023414526111    0.9876369972247170 F F F Si
   0.5659264166949497    0.6281551564223986    0.2002943173462454 F F F Si
   0.6791669513088359    0.6716263870766308    0.3354339296827777 F F F Si
   0.5756334879213976    0.9403994896203401    0.8492139057031856 F F F Si
   0.6939092236325214    0.9698186833393535    0.7064546493376376 F F F Si
   0.7167420189575282    0.9429278834641625    0.4813066044309475 F F F Si
   0.8764196655485750    0.9337494329728162    0.4837861494160540 F F F Si
   0.9318222184412676    0.9671292820736057    0.6954181160775652 F F F Si
   0.8180478523201278    0.9346855746197547    0.8330034248561506 F F F Si
   0.5804697749648001    0.1731852360387453    0.8324695671070687 F F F Si
   0.6980518421880993    0.1287673024534240    0.6993867016555110 F F F Si
   0.7307438835575154    0.1690734775957141    0.4813003604857432 F F F Si
   0.8858789319684303    0.1719017282590254    0.4890963256090906 F F F Si
   0.9346997599261896    0.1254425859741446    0.7010454703684661 F F F Si
   0.8195786958865291    0.1710314147742733    0.8334987350220109 F F F Si
   0.9230074764109285    0.0578051564134180    0.3493660531067631 F F F Si
   0.8055294882204747    0.0305774332273101    0.2053059120780045 F F F Si
   0.7811913843882884    0.0556593983474950    0.9803308335331226 F F F Si
   0.6217407717078948    0.0632002096344205    0.9847334271924313 F F F Si
   0.5682318206842818    0.0297758832233556    0.1968408754339006 F F F Si
   0.6814942522842673    0.0644445105084698    0.3338514766525109 F F F Si
   0.9200298480258046    0.8272287695168791    0.3289758620933081 F F F Si
   0.8013363315255980    0.8714949823612734    0.1983286398460029 F F F Si
   0.7681159458044201    0.8297226162291380    0.9796582381819321 F F F Si
   0.6130462796575864    0.8256564426658921    0.9856286608104201 F F F Si
   0.5655116255398308    0.8718250248614071    0.1986915206149255 F F F Si
   0.6793089783177667    0.8277017500796214    0.3339719443670626 F F F Si
   0.4263043841676939    0.4435282812947941    0.1477480505654684 F F F Si
   0.3041131128179587    0.4746371750438754    0.2838784643024850 F F F Si
   0.2843774040045056    0.4376480445208188    0.5088857481346413 F F F Si
   0.1248163506885281    0.4288833893708837    0.5147905223768113 F F F Si
   0.0700154182568707    0.4680494114629113    0.3037821184788934 F F F Si
   0.1780732153952090    0.4421372572476146    0.1530863653331470 F F F Si
   0.4206338073750938    0.6733026314089963    0.1708272994735150 F F F Si
   0.3044814299649977    0.6335245545477657    0.3096918184650611 F F F Si
   0.2685903561412789    0.6669749979511516    0.5291988716086069 F F F Si
   0.1136823439405482    0.6710970086279843    0.5146914117632574 F F F Si
   0.0657591156875059    0.6265678870866460    0.3018373270173991 F F F Si
   0.1834809071794339    0.6748795762218065    0.1768066281255143 F F F Si
   0.0806042373740354    0.5547087429875078    0.6507394852462224 F F F Si
   0.1934666557241229    0.5296950800143959    0.8038421885576467 F F F Si
   0.2200148654794813    0.5639916319038455    0.0205135008055722 F F F Si
   0.3780416499877592    0.5646220770767342    0.0158349731088249 F F F Si
   0.4307044596715743    0.5294359815098343    0.8078253791421279 F F F Si
   0.3171273001101577    0.5532059774286084    0.6652853512423986 F F F Si
   0.0766357822522594    0.3276438142417830    0.6721287767291839 F F F Si
   0.1973801176614846    0.3743440696704394    0.8029293014133502 F F F Si
   0.2354368849817123    0.3275922997105910    0.0214052214911049 F F F Si
   0.3893059765373801    0.3254144335358560    0.0201571916280731 F F F Si
   0.4379196747832754    0.3725302012037850    0.8101765806103636 F F F Si
   0.3638304585908241    0.3550095231906484    0.5063119306563726 F F F H
   0.4328727637428809    0.1308538211139217    0.4567527670857922 T T T H
   0.4707348694815864    0.1502645266449814    0.3416531624514087 T T T H
   0.3861989970766080    0.1716701901152509    0.3628288746738774 T T T H
   0.5248675747056928    0.1931445731356851    0.5452922462335104 T T T H
   0.5649861310542404    0.3017849876810635    0.6075849596246614 T T T H
   0.5772914390012012    0.4397281179245250    0.5151271171784697 T T T H
   0.4945706107792757    0.4687595943893588    0.5298096810649950 T T T H
   0.5353916999972139    0.4268494990129708    0.6291715725796865 T T T H
   0.4378613734342566    0.4040032475882722    0.4007873062843725 T T T H
   0.3961161219012168    0.2946277276420601    0.3395396226309304 T T T H
   0.4352981350054895    0.1687581221450856    0.3978014661433293 T T T C
   0.4571301466626492    0.2353943393507942    0.4381348677684938 T T T C
   0.5049997011087025    0.2393535369202157    0.5135402875316771 T T T C
   0.5276731566978046    0.3008372845776344    0.5489915876318859 T T T C
   0.5034303976165732    0.3614023192255205    0.5108264771212592 T T T C
   0.5286917197633690    0.4276733775448420    0.5482386842208845 T T T C
   0.4554133864966027    0.3577902933063739    0.4353389428887995 T T T C
   0.4325303245311005    0.2958465614934316    0.3997060333300143 T T T C
   0.3595603846778365    0.0590591438534687    0.2202794372661206 F F F O
   0.3001485192024930    0.0662725070165335    0.3948826037414744 F F F O
   0.2003985251731612    0.0545636941208328    0.5252757169811315 F F F O
   0.1002054114764679    0.0721086838409134    0.3979812336858283 F F F O
   0.1062160383955269    0.0536156271763097    0.2013393322661498 F F F O
   0.2317313748117425    0.0292467402869085    0.2367205995861021 F F F O
   0.3601815440194291    0.8293392779267141    0.2435714862441413 F F F O
   0.3055396714313265    0.8378823967294575    0.4190182443697452 F F F O
   0.1918973686916035    0.8483944782990394    0.5175511937188647 F F F O
   0.0882904255193363    0.8284729251011644    0.3989052314631334 F F F O
   0.1045798512415366    0.8477772845670499    0.2060172225395004 F F F O
   0.2308664187390748    0.8570412835333705    0.2589440351143765 F F F O
   0.3218568700279283    0.9474111603272297    0.3108774286931533 F F F O
   0.0826252583318681    0.9515263076343248    0.3258699113781205 F F F O
   0.4322650083962641    0.1243821601803112    0.0879039951894602 F F F O
   0.4167392337039142    0.9941127153377687    0.0657886399775408 F F F O
   0.3989826207732051    0.8628367490225464    0.0616996728828869 F F F O
   0.1966221667988928    0.1299131441331991    0.1155037758829847 F F F O
   0.1824481642950305    0.0037519538194495    0.0573421382780538 F F F O
   0.1956737092857836    0.8705491706928137    0.0676204532809801 F F F O
   0.9916664448101458    0.0461008201557363    0.2887057819537588 F F F O
   0.9857370212352324    0.8651640177780234    0.2862140814027486 F F F O
   0.1402977207609507    0.9367667805892840    0.7184072797269381 F F F O
   0.1972178259965337    0.9307151180763985    0.8948834587669919 F F F O
   0.2986820945025073    0.9467510667772088    0.0218122974961816 F F F O
   0.3987478326208213    0.9289775761668679    0.8943140457837364 F F F O
   0.3939028488921216    0.9461988681597082    0.6978383040752407 F F F O
   0.2679406907921859    0.9650098275406894    0.7375672597228834 F F F O
   0.1399472272152452    0.1690204500926049    0.7492723904421593 F F F O
   0.1975533589007236    0.1554689760995458    0.9214240013550572 F F F O
   0.3108732779231582    0.1471519864228275    0.0209042014283925 F F F O
   0.4139570191113610    0.1690088484164559    0.9027188380834160 F F F O
   0.3950373179241605    0.1543079553748374    0.7076655094013528 F F F O
   0.2692983470347337    0.1364656723260181    0.7571335149058188 F F F O
   0.1767982881045002    0.0487523740524218    0.8085283061763686 F F F O
   0.4198578963048666    0.0486725633525059    0.8212040958485248 F F F O
   0.0698822131709099    0.8733138117557837    0.5829158281192448 F F F O
   0.0829056173340895    0.0048778432379318    0.5673607615761362 F F F O
   0.0997903944489366    0.1370727286606773    0.5668252746590242 F F F O
   0.3056898994561448    0.8667630722941577    0.6129375143003861 F F F O
   0.3145232441740224    0.9930887570552726    0.5563245516597377 F F F O
   0.3075870140572329    0.1268538500142872    0.5673589949858241 F F F O
   0.5082980818560999    0.9517357213903963    0.7856715318199458 F F F O
   0.5147606404867591    0.1383308724994731    0.7847711480254437 F F F O
   0.6383674340676401    0.5667402788089911    0.7741580785750782 F F F O
   0.6858963309548866    0.5502105945843530    0.5927278090006576 F F F O
   0.7991549507808716    0.5587338041206000    0.4911368307707731 F F F O
   0.9092594233524635    0.5699565777621659    0.5971856627989519 F F F O
   0.8961259423161133    0.5626571568829699    0.7922501419687056 F F F O
   0.7689641116160401    0.5533486857903579    0.7436295674679805 F F F O
   0.6392497846011010    0.3279282778109622    0.7505908514614831 F F F O
   0.6964907168287433    0.3590005344541167    0.5820178580062491 F F F O
   0.8087513882874644    0.3515675287528814    0.4803521429834295 F F F O
   0.9088294496636246    0.3304664982083748    0.6049158679352762 F F F O
   0.8949046681813341    0.3441853692272017    0.8001633019024906 F F F O
   0.7701328165992154    0.3461465481185563    0.7436755254080009 F F F O
   0.6875341397050997    0.4496152230659228    0.7253563052241255 F F F O
   0.9125448042508875    0.4514341106821183    0.6852071399125482 F F F O
   0.5686918919204631    0.6238413194411894    0.9186038492125362 F F F O
   0.5883463450150911    0.4928220084852341    0.9239023445488729 F F F O
   0.6142973086465068    0.3623644180942139    0.9375578321037943 F F F O
   0.8074678802152035    0.6356393716854802    0.8874556027053659 F F F O
   0.8129410831088376    0.5031057616888113    0.9151169198362755 F F F O
   0.8007321394364231    0.3708933947575890    0.9344371485354396 F F F O
   0.0125413372272632    0.5376683350441469    0.7102913672825548 F F F O
   0.0114867274011601    0.3653805343310705    0.7174574865234117 F F F O
   0.8627556602389087    0.4313991317771335    0.2750764551767032 F F F O
   0.8183034509821762    0.4477413731079476    0.0921668716383042 F F F O
   0.7040120601852022    0.4528707660178628    0.9941954741163358 F F F O
   0.5942727248496888    0.4322074216198940    0.0990437297924559 F F F O
   0.6075725807366301    0.4402988389624083    0.2957602465444859 F F F O
   0.7333065628850084    0.4435889917279058    0.2412624115879298 F F F O
   0.8613789830457467    0.6702158710015147    0.2492044606376141 F F F O
   0.8023830588755452    0.6397052869740059    0.0821230101039901 F F F O
   0.6910816187173195    0.6475433641721859    0.9793129063404541 F F F O
   0.5895363551889076    0.6689209922203445    0.1022787006245582 F F F O
   0.6034125926974343    0.6589989176228637    0.2970561111619344 F F F O
   0.7301865773217342    0.6513318921900155    0.2459168944889286 F F F O
   0.8133763131583501    0.5485965355894036    0.2246445105385345 F F F O
   0.5856498649222139    0.5497332200592405    0.1877384713126640 F F F O
   0.9314772189975995    0.3729748120869429    0.4195310072067010 F F F O
   0.9108181216457290    0.5035282666730900    0.4273634591183795 F F F O
   0.8992127230212740    0.6360958123572310    0.4314250109127861 F F F O
   0.6933687891275823    0.3626139363344190    0.3868946507271014 F F F O
   0.6964332028405568    0.4941933030283934    0.4166608469672274 F F F O
   0.6929864480730239    0.6271942184142887    0.4341263462053594 F F F O
   0.4908754009536028    0.4576015363106876    0.2167872177790313 F F F O
   0.4860638287181830    0.6357840822827926    0.2153427959361258 F F F O
   0.6378584760189622    0.9325342226004686    0.7731158712146233 F F F O
   0.6833587633994449    0.9501517802594009    0.5907096756200705 F F F O
   0.7969294497170127    0.9454741351089585    0.4896032941108414 F F F O
   0.9069843407683555    0.9303461153265464    0.5946229962371409 F F F O
   0.8935610126095025    0.9356531030759535    0.7907925873738814 F F F O
   0.7675223616700602    0.9453279675788555    0.7399612400106852 F F F O
   0.6386489102172451    0.1723456891578634    0.7486530926717221 F F F O
   0.6953248858254097    0.1398196595438355    0.5804877259146765 F F F O
   0.8087614098525245    0.1472843331950746    0.4822142080719933 F F F O
   0.9121086022344868    0.1663625458536509    0.6024855761963108 F F F O
   0.8953117520480761    0.1554048947846772    0.7971804464613703 F F F O
   0.7696654399722439    0.1535533935275858    0.7415600512910068 F F F O
   0.6867327983888353    0.0501110554538862    0.7250758782841278 F F F O
   0.9161353533092904    0.0468761026369306    0.6866648248498458 F F F O
   0.5677328274543367    0.8720261970106362    0.9137541421747601 F F F O
   0.5857373748283270    0.0027460137330772    0.9251289293600078 F F F O
   0.6056895366930897    0.1340069942534108    0.9311288569420285 F F F O
   0.8051402476290740    0.8621985219941611    0.8841403048255453 F F F O
   0.8090037555218280    0.9943251988826470    0.9135387840229283 F F F O
   0.8014099834224111    0.1269973467776100    0.9310852755393355 F F F O
   0.0105349079180498    0.9536074989251294    0.7122104334982107 F F F O
   0.0141577875849024    0.1341140431614933    0.7188912643748935 F F F O
   0.8625461706856955    0.0673125079710928    0.2707740163554064 F F F O
   0.8149134346186800    0.0505958510351569    0.0895385481751283 F F F O
   0.7010591084312462    0.0495505443386861    0.9886220748642569 F F F O
   0.5922603112243354    0.0675520758985418    0.0964697975141275 F F F O
   0.6058094852634627    0.0620261249878689    0.2923075534903118 F F F O
   0.7321685364990882    0.0551876035079032    0.2404724555973857 F F F O
   0.8624391491110656    0.8289559452893639    0.2447059810513370 F F F O
   0.8014998510293599    0.8601137720968369    0.0794719081882524 F F F O
   0.6899192426248952    0.8505019292835803    0.9779049652444366 F F F O
   0.5880740389213358    0.8311261621108618    0.0998234285089169 F F F O
   0.6037469045743901    0.8405688949375459    0.2945956537236100 F F F O
   0.7307935161070657    0.8465299933573115    0.2444861742165155 F F F O
   0.8123282627381896    0.9502804198162801    0.2231769115354455 F F F O
   0.5854201479466701    0.9503199748999349    0.1871492578104537 F F F O
   0.9304823067018462    0.1254165256938228    0.4158946540877714 F F F O
   0.9103930295812515    0.9946380965220932    0.4226411837554074 F F F O
   0.8930069590188414    0.8628706258498170    0.4298859107165434 F F F O
   0.6937853739246486    0.1368945869374090    0.3855575409221483 F F F O
   0.6916374260523693    0.0049232039921548    0.4138980595339768 F F F O
   0.6934045748974313    0.8723842071400554    0.4324745509618778 F F F O
   0.4891068927329849    0.0410620804486708    0.2143396059176151 F F F O
   0.4855670687620913    0.8640861230043025    0.2137571382635791 F F F O
   0.3616194200072291    0.4385055325051428    0.2195323073308057 F F F O
   0.3097459952857233    0.4458495098019386    0.3962715601930137 F F F O
   0.2058199166223169    0.4264923275979719    0.5185001301602196 F F F O
   0.1007241164866504    0.4304762065351854    0.4004212611602451 F F F O
   0.1049307275623877    0.4394972606316579    0.2036298079451031 F F F O
   0.2314729516329006    0.4558183246171463    0.2416849956862122 F F F O
   0.3635904632951937    0.6752179108788035    0.2564664649301734 F F F O
   0.3084282709174251    0.6460248070665805    0.4284520820600579 F F F O
   0.1908178887986583    0.6458327709526418    0.5167241787952539 F F F O
   0.0855676204679961    0.6667293017456740    0.4022449723997112 F F F O
   0.1073766441225776    0.6566208667932486    0.2081182462571240 F F F O
   0.2318179484854676    0.6573960599317876    0.2705750188902928 F F F O
   0.3154894161101878    0.5548148064328744    0.2834936534936542 F F F O
   0.0837232034355657    0.5478828888713391    0.3159043699094903 F F F O
   0.4354959979966948    0.3723321871894965    0.0909010566473826 F F F O
   0.4191791870928193    0.5037868682088747    0.0673925073610937 F F F O
   0.3933595456611605    0.6346024214205989    0.0728588423641009 F F F O
   0.1915146529808419    0.3710303979302510    0.0994135492516365 F F F O
   0.1805389796815481    0.5026771623575805    0.0730578719800708 F F F O
   0.2055881791726879    0.6336223710309986    0.0784971918231930 F F F O
   0.9913731477073798    0.4529908298664620    0.2920601228726515 F F F O
   0.9866759603547649    0.6360483491828488    0.2808037008573269 F F F O
   0.1401428614545445    0.5649143460302389    0.7301271891889980 F F F O
   0.1934477801587722    0.5715672978948922    0.9074571996879499 F F F O
   0.2992152151170166    0.5473646111140026    0.0225315556017836 F F F O
   0.4017113270566925    0.5728014908047300    0.9012155255091369 F F F O
   0.3927828710448941    0.5512262746773148    0.7061125554376253 F F F O
   0.2673251533842477    0.5344483805544492    0.7553942159680188 F F F O
   0.1357881253207941    0.3343236128946287    0.7519954629874144 F F F O
   0.2095403392525271    0.3375800758245415    0.9090851153462047 F F F O
   0.3127238332053193    0.3516142748343902    0.0296782614424894 F F F O
   0.4143161187846665    0.3289270727581253    0.9063716182381792 F F F O
   0.4024263200384139    0.3449338901069492    0.7124319204984246 F F F O
   0.2621286716497210    0.3732045812896268    0.7333627350877334 F F F O
   0.1741275656836825    0.4519051102357377    0.8233919047748187 F F F O
   0.4193523408547509    0.4508669186498001    0.8323013254504099 F F F O
   0.0703054245538526    0.6235912570418229    0.5881374778520493 F F F O
   0.0987037647363927    0.4947203909800122    0.5734169081602295 F F F O
   0.0966307254160910    0.3613908932858005    0.5658944424370882 F F F O
   0.3010983345843118    0.6272419081090932    0.6221249639651334 F F F O
   0.3101116561480952    0.4991850423310280    0.5750242723349239 F F F O
   0.3230877138453032    0.3666609349552961    0.5460278446464338 F F F O
   0.5088903880404110    0.5457886562119082    0.7888840919814544 F F F O
   0.5187378146269139    0.3673475053762726    0.7997846252389739 F F F O
   0.4390102930834300    0.7495503496585378    0.1397404709434881 F F F O
   0.1900285489044749    0.7532960036897521    0.1497874957950075 F F F O
   0.2751449610987464    0.7461694353030119    0.5523682079069960 F F F O
   0.1074273730749817    0.7481616225062302    0.5522429778944903 F F F O
   0.0599151356775977    0.2496434268877533    0.6500007198358939 F F F O
   0.3041121852372370    0.2451329627202836    0.6535102609604065 F F F O
   0.2282135766996980    0.2496438713069312    0.0533112354040014 F F F O
   0.3948575970804193    0.2483442381693532    0.0579343133736364 F F F O
   0.5651289634700642    0.2500867038398864    0.8642151538414514 F F F O
   0.8122623733906476    0.2492081647137453    0.8645878489407659 F F F O
   0.7230645195575732    0.2495050957980708    0.4765067184490764 F F F O
   0.8923294184690724    0.2490908841719102    0.4527300467686652 F F F O
   0.9384333837602906    0.7501084218034121    0.3546980247130102 F F F O
   0.6885938830405364    0.7497678314170662    0.3651963746678739 F F F O
   0.7771778108488381    0.7493024561891916    0.9760174384825707 F F F O
   0.6064529966205994    0.7485712102647825    0.9487362703527522 F F F O
